EFEP *** Demo imput file: Taylor Bar
! a copper cylinder impact a rigid plane
! 861 nodes; 640 elements
! Unit: mm g N ms MPa

NBNO 1331   ! Total number of nodes
NBEL 1000   ! Total number of elements
NMAT   1      ! Total number of material sets
NCOMp  1      ! Total number of bodies
ENDTime 2.0  ! Simulation terminate time 
DTSCale 0.8   ! Scale for time step size
OUTT 0.1   ! Results output time interval
REPO 0.05   ! Status report interval
HOURglass 2 0.20   !  Hourglass control method and parameters
JAUM on            !  Jaumann rate of stress activated


CURV engk     ! Write time history of kinematic energy
CURV engs     ! Write time history of strain energy
CURV ener     ! Write time history of total energy
CURV seqv     ! Write Von Mises stress time history of element 1

! RIGIdplane 1 102.0  ! Define a rigid wall at x = 102.0

MATErial
!  num  mtype  density  young's   Poisson  Yield0 TanMod   sigma_c  G_c
!     1   plf2   2.45d-3   32.0d3    0.2d0   10      10.0       25    3.0d2
      1   elsf   2.45d-3   32.0d3    0.2d0   10    3.0d-2
NODE
!     n   comp              x                 y                z
1	1	0	0	0
2	1	100	0	0
3	1	100	50	0
4	1	0	50	0
5	1	0	0	50
6	1	100	0	50
7	1	100	50	50
8	1	0	50	50
9	1	10	0	0
10	1	20	0	0
11	1	30	0	0
12	1	40	0	0
13	1	50	0	0
14	1	60	0	0
15	1	70	0	0
16	1	80	0	0
17	1	90	0	0
18	1	100	5	0
19	1	100	10	0
20	1	100	15	0
21	1	100	20	0
22	1	100	25	0
23	1	100	30	0
24	1	100	35	0
25	1	100	40	0
26	1	100	45	0
27	1	90	50	0
28	1	80	50	0
29	1	70	50	0
30	1	60	50	0
31	1	50	50	0
32	1	40	50	0
33	1	30	50	0
34	1	20	50	0
35	1	10	50	0
36	1	0	45	0
37	1	0	40	0
38	1	0	35	0
39	1	0	30	0
40	1	0	25	0
41	1	0	20	0
42	1	0	15	0
43	1	0	10	0
44	1	0	5	0
45	1	0	0	5
46	1	0	0	10
47	1	0	0	15
48	1	0	0	20
49	1	0	0	25
50	1	0	0	30
51	1	0	0	35
52	1	0	0	40
53	1	0	0	45
54	1	100	0	5
55	1	100	0	10
56	1	100	0	15
57	1	100	0	20
58	1	100	0	25
59	1	100	0	30
60	1	100	0	35
61	1	100	0	40
62	1	100	0	45
63	1	100	50	5
64	1	100	50	10
65	1	100	50	15
66	1	100	50	20
67	1	100	50	25
68	1	100	50	30
69	1	100	50	35
70	1	100	50	40
71	1	100	50	45
72	1	0	50	5
73	1	0	50	10
74	1	0	50	15
75	1	0	50	20
76	1	0	50	25
77	1	0	50	30
78	1	0	50	35
79	1	0	50	40
80	1	0	50	45
81	1	10	0	50
82	1	20	0	50
83	1	30	0	50
84	1	40	0	50
85	1	50	0	50
86	1	60	0	50
87	1	70	0	50
88	1	80	0	50
89	1	90	0	50
90	1	100	5	50
91	1	100	10	50
92	1	100	15	50
93	1	100	20	50
94	1	100	25	50
95	1	100	30	50
96	1	100	35	50
97	1	100	40	50
98	1	100	45	50
99	1	90	50	50
100	1	80	50	50
101	1	70	50	50
102	1	60	50	50
103	1	50	50	50
104	1	40	50	50
105	1	30	50	50
106	1	20	50	50
107	1	10	50	50
108	1	0	45	50
109	1	0	40	50
110	1	0	35	50
111	1	0	30	50
112	1	0	25	50
113	1	0	20	50
114	1	0	15	50
115	1	0	10	50
116	1	0	5	50
117	1	10	5	0
118	1	10	10	0
119	1	10	15	0
120	1	10	20	0
121	1	10	25	0
122	1	10	30	0
123	1	10	35	0
124	1	10	40	0
125	1	10	45	0
126	1	20	5	0
127	1	20	10	0
128	1	20	15	0
129	1	20	20	0
130	1	20	25	0
131	1	20	30	0
132	1	20	35	0
133	1	20	40	0
134	1	20	45	0
135	1	30	5	0
136	1	30	10	0
137	1	30	15	0
138	1	30	20	0
139	1	30	25	0
140	1	30	30	0
141	1	30	35	0
142	1	30	40	0
143	1	30	45	0
144	1	40	5	0
145	1	40	10	0
146	1	40	15	0
147	1	40	20	0
148	1	40	25	0
149	1	40	30	0
150	1	40	35	0
151	1	40	40	0
152	1	40	45	0
153	1	50	5	0
154	1	50	10	0
155	1	50	15	0
156	1	50	20	0
157	1	50	25	0
158	1	50	30	0
159	1	50	35	0
160	1	50	40	0
161	1	50	45	0
162	1	60	5	0
163	1	60	10	0
164	1	60	15	0
165	1	60	20	0
166	1	60	25	0
167	1	60	30	0
168	1	60	35	0
169	1	60	40	0
170	1	60	45	0
171	1	70	5	0
172	1	70	10	0
173	1	70	15	0
174	1	70	20	0
175	1	70	25	0
176	1	70	30	0
177	1	70	35	0
178	1	70	40	0
179	1	70	45	0
180	1	80	5	0
181	1	80	10	0
182	1	80	15	0
183	1	80	20	0
184	1	80	25	0
185	1	80	30	0
186	1	80	35	0
187	1	80	40	0
188	1	80	45	0
189	1	90	5	0
190	1	90	10	0
191	1	90	15	0
192	1	90	20	0
193	1	90	25	0
194	1	90	30	0
195	1	90	35	0
196	1	90	40	0
197	1	90	45	0
198	1	10	0	5
199	1	10	0	10
200	1	10	0	15
201	1	10	0	20
202	1	10	0	25
203	1	10	0	30
204	1	10	0	35
205	1	10	0	40
206	1	10	0	45
207	1	20	0	5
208	1	20	0	10
209	1	20	0	15
210	1	20	0	20
211	1	20	0	25
212	1	20	0	30
213	1	20	0	35
214	1	20	0	40
215	1	20	0	45
216	1	30	0	5
217	1	30	0	10
218	1	30	0	15
219	1	30	0	20
220	1	30	0	25
221	1	30	0	30
222	1	30	0	35
223	1	30	0	40
224	1	30	0	45
225	1	40	0	5
226	1	40	0	10
227	1	40	0	15
228	1	40	0	20
229	1	40	0	25
230	1	40	0	30
231	1	40	0	35
232	1	40	0	40
233	1	40	0	45
234	1	50	0	5
235	1	50	0	10
236	1	50	0	15
237	1	50	0	20
238	1	50	0	25
239	1	50	0	30
240	1	50	0	35
241	1	50	0	40
242	1	50	0	45
243	1	60	0	5
244	1	60	0	10
245	1	60	0	15
246	1	60	0	20
247	1	60	0	25
248	1	60	0	30
249	1	60	0	35
250	1	60	0	40
251	1	60	0	45
252	1	70	0	5
253	1	70	0	10
254	1	70	0	15
255	1	70	0	20
256	1	70	0	25
257	1	70	0	30
258	1	70	0	35
259	1	70	0	40
260	1	70	0	45
261	1	80	0	5
262	1	80	0	10
263	1	80	0	15
264	1	80	0	20
265	1	80	0	25
266	1	80	0	30
267	1	80	0	35
268	1	80	0	40
269	1	80	0	45
270	1	90	0	5
271	1	90	0	10
272	1	90	0	15
273	1	90	0	20
274	1	90	0	25
275	1	90	0	30
276	1	90	0	35
277	1	90	0	40
278	1	90	0	45
279	1	100	5	5
280	1	100	5	10
281	1	100	5	15
282	1	100	5	20
283	1	100	5	25
284	1	100	5	30
285	1	100	5	35
286	1	100	5	40
287	1	100	5	45
288	1	100	10	5
289	1	100	10	10
290	1	100	10	15
291	1	100	10	20
292	1	100	10	25
293	1	100	10	30
294	1	100	10	35
295	1	100	10	40
296	1	100	10	45
297	1	100	15	5
298	1	100	15	10
299	1	100	15	15
300	1	100	15	20
301	1	100	15	25
302	1	100	15	30
303	1	100	15	35
304	1	100	15	40
305	1	100	15	45
306	1	100	20	5
307	1	100	20	10
308	1	100	20	15
309	1	100	20	20
310	1	100	20	25
311	1	100	20	30
312	1	100	20	35
313	1	100	20	40
314	1	100	20	45
315	1	100	25	5
316	1	100	25	10
317	1	100	25	15
318	1	100	25	20
319	1	100	25	25
320	1	100	25	30
321	1	100	25	35
322	1	100	25	40
323	1	100	25	45
324	1	100	30	5
325	1	100	30	10
326	1	100	30	15
327	1	100	30	20
328	1	100	30	25
329	1	100	30	30
330	1	100	30	35
331	1	100	30	40
332	1	100	30	45
333	1	100	35	5
334	1	100	35	10
335	1	100	35	15
336	1	100	35	20
337	1	100	35	25
338	1	100	35	30
339	1	100	35	35
340	1	100	35	40
341	1	100	35	45
342	1	100	40	5
343	1	100	40	10
344	1	100	40	15
345	1	100	40	20
346	1	100	40	25
347	1	100	40	30
348	1	100	40	35
349	1	100	40	40
350	1	100	40	45
351	1	100	45	5
352	1	100	45	10
353	1	100	45	15
354	1	100	45	20
355	1	100	45	25
356	1	100	45	30
357	1	100	45	35
358	1	100	45	40
359	1	100	45	45
360	1	90	50	5
361	1	90	50	10
362	1	90	50	15
363	1	90	50	20
364	1	90	50	25
365	1	90	50	30
366	1	90	50	35
367	1	90	50	40
368	1	90	50	45
369	1	80	50	5
370	1	80	50	10
371	1	80	50	15
372	1	80	50	20
373	1	80	50	25
374	1	80	50	30
375	1	80	50	35
376	1	80	50	40
377	1	80	50	45
378	1	70	50	5
379	1	70	50	10
380	1	70	50	15
381	1	70	50	20
382	1	70	50	25
383	1	70	50	30
384	1	70	50	35
385	1	70	50	40
386	1	70	50	45
387	1	60	50	5
388	1	60	50	10
389	1	60	50	15
390	1	60	50	20
391	1	60	50	25
392	1	60	50	30
393	1	60	50	35
394	1	60	50	40
395	1	60	50	45
396	1	50	50	5
397	1	50	50	10
398	1	50	50	15
399	1	50	50	20
400	1	50	50	25
401	1	50	50	30
402	1	50	50	35
403	1	50	50	40
404	1	50	50	45
405	1	40	50	5
406	1	40	50	10
407	1	40	50	15
408	1	40	50	20
409	1	40	50	25
410	1	40	50	30
411	1	40	50	35
412	1	40	50	40
413	1	40	50	45
414	1	30	50	5
415	1	30	50	10
416	1	30	50	15
417	1	30	50	20
418	1	30	50	25
419	1	30	50	30
420	1	30	50	35
421	1	30	50	40
422	1	30	50	45
423	1	20	50	5
424	1	20	50	10
425	1	20	50	15
426	1	20	50	20
427	1	20	50	25
428	1	20	50	30
429	1	20	50	35
430	1	20	50	40
431	1	20	50	45
432	1	10	50	5
433	1	10	50	10
434	1	10	50	15
435	1	10	50	20
436	1	10	50	25
437	1	10	50	30
438	1	10	50	35
439	1	10	50	40
440	1	10	50	45
441	1	0	45	5
442	1	0	45	10
443	1	0	45	15
444	1	0	45	20
445	1	0	45	25
446	1	0	45	30
447	1	0	45	35
448	1	0	45	40
449	1	0	45	45
450	1	0	40	5
451	1	0	40	10
452	1	0	40	15
453	1	0	40	20
454	1	0	40	25
455	1	0	40	30
456	1	0	40	35
457	1	0	40	40
458	1	0	40	45
459	1	0	35	5
460	1	0	35	10
461	1	0	35	15
462	1	0	35	20
463	1	0	35	25
464	1	0	35	30
465	1	0	35	35
466	1	0	35	40
467	1	0	35	45
468	1	0	30	5
469	1	0	30	10
470	1	0	30	15
471	1	0	30	20
472	1	0	30	25
473	1	0	30	30
474	1	0	30	35
475	1	0	30	40
476	1	0	30	45
477	1	0	25	5
478	1	0	25	10
479	1	0	25	15
480	1	0	25	20
481	1	0	25	25
482	1	0	25	30
483	1	0	25	35
484	1	0	25	40
485	1	0	25	45
486	1	0	20	5
487	1	0	20	10
488	1	0	20	15
489	1	0	20	20
490	1	0	20	25
491	1	0	20	30
492	1	0	20	35
493	1	0	20	40
494	1	0	20	45
495	1	0	15	5
496	1	0	15	10
497	1	0	15	15
498	1	0	15	20
499	1	0	15	25
500	1	0	15	30
501	1	0	15	35
502	1	0	15	40
503	1	0	15	45
504	1	0	10	5
505	1	0	10	10
506	1	0	10	15
507	1	0	10	20
508	1	0	10	25
509	1	0	10	30
510	1	0	10	35
511	1	0	10	40
512	1	0	10	45
513	1	0	5	5
514	1	0	5	10
515	1	0	5	15
516	1	0	5	20
517	1	0	5	25
518	1	0	5	30
519	1	0	5	35
520	1	0	5	40
521	1	0	5	45
522	1	10	5	50
523	1	10	10	50
524	1	10	15	50
525	1	10	20	50
526	1	10	25	50
527	1	10	30	50
528	1	10	35	50
529	1	10	40	50
530	1	10	45	50
531	1	20	5	50
532	1	20	10	50
533	1	20	15	50
534	1	20	20	50
535	1	20	25	50
536	1	20	30	50
537	1	20	35	50
538	1	20	40	50
539	1	20	45	50
540	1	30	5	50
541	1	30	10	50
542	1	30	15	50
543	1	30	20	50
544	1	30	25	50
545	1	30	30	50
546	1	30	35	50
547	1	30	40	50
548	1	30	45	50
549	1	40	5	50
550	1	40	10	50
551	1	40	15	50
552	1	40	20	50
553	1	40	25	50
554	1	40	30	50
555	1	40	35	50
556	1	40	40	50
557	1	40	45	50
558	1	50	5	50
559	1	50	10	50
560	1	50	15	50
561	1	50	20	50
562	1	50	25	50
563	1	50	30	50
564	1	50	35	50
565	1	50	40	50
566	1	50	45	50
567	1	60	5	50
568	1	60	10	50
569	1	60	15	50
570	1	60	20	50
571	1	60	25	50
572	1	60	30	50
573	1	60	35	50
574	1	60	40	50
575	1	60	45	50
576	1	70	5	50
577	1	70	10	50
578	1	70	15	50
579	1	70	20	50
580	1	70	25	50
581	1	70	30	50
582	1	70	35	50
583	1	70	40	50
584	1	70	45	50
585	1	80	5	50
586	1	80	10	50
587	1	80	15	50
588	1	80	20	50
589	1	80	25	50
590	1	80	30	50
591	1	80	35	50
592	1	80	40	50
593	1	80	45	50
594	1	90	5	50
595	1	90	10	50
596	1	90	15	50
597	1	90	20	50
598	1	90	25	50
599	1	90	30	50
600	1	90	35	50
601	1	90	40	50
602	1	90	45	50
603	1	10	5	5
604	1	10	5	10
605	1	10	5	15
606	1	10	5	20
607	1	10	5	25
608	1	10	5	30
609	1	10	5	35
610	1	10	5	40
611	1	10	5	45
612	1	10	10	5
613	1	10	10	10
614	1	10	10	15
615	1	10	10	20
616	1	10	10	25
617	1	10	10	30
618	1	10	10	35
619	1	10	10	40
620	1	10	10	45
621	1	10	15	5
622	1	10	15	10
623	1	10	15	15
624	1	10	15	20
625	1	10	15	25
626	1	10	15	30
627	1	10	15	35
628	1	10	15	40
629	1	10	15	45
630	1	10	20	5
631	1	10	20	10
632	1	10	20	15
633	1	10	20	20
634	1	10	20	25
635	1	10	20	30
636	1	10	20	35
637	1	10	20	40
638	1	10	20	45
639	1	10	25	5
640	1	10	25	10
641	1	10	25	15
642	1	10	25	20
643	1	10	25	25
644	1	10	25	30
645	1	10	25	35
646	1	10	25	40
647	1	10	25	45
648	1	10	30	5
649	1	10	30	10
650	1	10	30	15
651	1	10	30	20
652	1	10	30	25
653	1	10	30	30
654	1	10	30	35
655	1	10	30	40
656	1	10	30	45
657	1	10	35	5
658	1	10	35	10
659	1	10	35	15
660	1	10	35	20
661	1	10	35	25
662	1	10	35	30
663	1	10	35	35
664	1	10	35	40
665	1	10	35	45
666	1	10	40	5
667	1	10	40	10
668	1	10	40	15
669	1	10	40	20
670	1	10	40	25
671	1	10	40	30
672	1	10	40	35
673	1	10	40	40
674	1	10	40	45
675	1	10	45	5
676	1	10	45	10
677	1	10	45	15
678	1	10	45	20
679	1	10	45	25
680	1	10	45	30
681	1	10	45	35
682	1	10	45	40
683	1	10	45	45
684	1	20	5	5
685	1	20	5	10
686	1	20	5	15
687	1	20	5	20
688	1	20	5	25
689	1	20	5	30
690	1	20	5	35
691	1	20	5	40
692	1	20	5	45
693	1	20	10	5
694	1	20	10	10
695	1	20	10	15
696	1	20	10	20
697	1	20	10	25
698	1	20	10	30
699	1	20	10	35
700	1	20	10	40
701	1	20	10	45
702	1	20	15	5
703	1	20	15	10
704	1	20	15	15
705	1	20	15	20
706	1	20	15	25
707	1	20	15	30
708	1	20	15	35
709	1	20	15	40
710	1	20	15	45
711	1	20	20	5
712	1	20	20	10
713	1	20	20	15
714	1	20	20	20
715	1	20	20	25
716	1	20	20	30
717	1	20	20	35
718	1	20	20	40
719	1	20	20	45
720	1	20	25	5
721	1	20	25	10
722	1	20	25	15
723	1	20	25	20
724	1	20	25	25
725	1	20	25	30
726	1	20	25	35
727	1	20	25	40
728	1	20	25	45
729	1	20	30	5
730	1	20	30	10
731	1	20	30	15
732	1	20	30	20
733	1	20	30	25
734	1	20	30	30
735	1	20	30	35
736	1	20	30	40
737	1	20	30	45
738	1	20	35	5
739	1	20	35	10
740	1	20	35	15
741	1	20	35	20
742	1	20	35	25
743	1	20	35	30
744	1	20	35	35
745	1	20	35	40
746	1	20	35	45
747	1	20	40	5
748	1	20	40	10
749	1	20	40	15
750	1	20	40	20
751	1	20	40	25
752	1	20	40	30
753	1	20	40	35
754	1	20	40	40
755	1	20	40	45
756	1	20	45	5
757	1	20	45	10
758	1	20	45	15
759	1	20	45	20
760	1	20	45	25
761	1	20	45	30
762	1	20	45	35
763	1	20	45	40
764	1	20	45	45
765	1	30	5	5
766	1	30	5	10
767	1	30	5	15
768	1	30	5	20
769	1	30	5	25
770	1	30	5	30
771	1	30	5	35
772	1	30	5	40
773	1	30	5	45
774	1	30	10	5
775	1	30	10	10
776	1	30	10	15
777	1	30	10	20
778	1	30	10	25
779	1	30	10	30
780	1	30	10	35
781	1	30	10	40
782	1	30	10	45
783	1	30	15	5
784	1	30	15	10
785	1	30	15	15
786	1	30	15	20
787	1	30	15	25
788	1	30	15	30
789	1	30	15	35
790	1	30	15	40
791	1	30	15	45
792	1	30	20	5
793	1	30	20	10
794	1	30	20	15
795	1	30	20	20
796	1	30	20	25
797	1	30	20	30
798	1	30	20	35
799	1	30	20	40
800	1	30	20	45
801	1	30	25	5
802	1	30	25	10
803	1	30	25	15
804	1	30	25	20
805	1	30	25	25
806	1	30	25	30
807	1	30	25	35
808	1	30	25	40
809	1	30	25	45
810	1	30	30	5
811	1	30	30	10
812	1	30	30	15
813	1	30	30	20
814	1	30	30	25
815	1	30	30	30
816	1	30	30	35
817	1	30	30	40
818	1	30	30	45
819	1	30	35	5
820	1	30	35	10
821	1	30	35	15
822	1	30	35	20
823	1	30	35	25
824	1	30	35	30
825	1	30	35	35
826	1	30	35	40
827	1	30	35	45
828	1	30	40	5
829	1	30	40	10
830	1	30	40	15
831	1	30	40	20
832	1	30	40	25
833	1	30	40	30
834	1	30	40	35
835	1	30	40	40
836	1	30	40	45
837	1	30	45	5
838	1	30	45	10
839	1	30	45	15
840	1	30	45	20
841	1	30	45	25
842	1	30	45	30
843	1	30	45	35
844	1	30	45	40
845	1	30	45	45
846	1	40	5	5
847	1	40	5	10
848	1	40	5	15
849	1	40	5	20
850	1	40	5	25
851	1	40	5	30
852	1	40	5	35
853	1	40	5	40
854	1	40	5	45
855	1	40	10	5
856	1	40	10	10
857	1	40	10	15
858	1	40	10	20
859	1	40	10	25
860	1	40	10	30
861	1	40	10	35
862	1	40	10	40
863	1	40	10	45
864	1	40	15	5
865	1	40	15	10
866	1	40	15	15
867	1	40	15	20
868	1	40	15	25
869	1	40	15	30
870	1	40	15	35
871	1	40	15	40
872	1	40	15	45
873	1	40	20	5
874	1	40	20	10
875	1	40	20	15
876	1	40	20	20
877	1	40	20	25
878	1	40	20	30
879	1	40	20	35
880	1	40	20	40
881	1	40	20	45
882	1	40	25	5
883	1	40	25	10
884	1	40	25	15
885	1	40	25	20
886	1	40	25	25
887	1	40	25	30
888	1	40	25	35
889	1	40	25	40
890	1	40	25	45
891	1	40	30	5
892	1	40	30	10
893	1	40	30	15
894	1	40	30	20
895	1	40	30	25
896	1	40	30	30
897	1	40	30	35
898	1	40	30	40
899	1	40	30	45
900	1	40	35	5
901	1	40	35	10
902	1	40	35	15
903	1	40	35	20
904	1	40	35	25
905	1	40	35	30
906	1	40	35	35
907	1	40	35	40
908	1	40	35	45
909	1	40	40	5
910	1	40	40	10
911	1	40	40	15
912	1	40	40	20
913	1	40	40	25
914	1	40	40	30
915	1	40	40	35
916	1	40	40	40
917	1	40	40	45
918	1	40	45	5
919	1	40	45	10
920	1	40	45	15
921	1	40	45	20
922	1	40	45	25
923	1	40	45	30
924	1	40	45	35
925	1	40	45	40
926	1	40	45	45
927	1	50	5	5
928	1	50	5	10
929	1	50	5	15
930	1	50	5	20
931	1	50	5	25
932	1	50	5	30
933	1	50	5	35
934	1	50	5	40
935	1	50	5	45
936	1	50	10	5
937	1	50	10	10
938	1	50	10	15
939	1	50	10	20
940	1	50	10	25
941	1	50	10	30
942	1	50	10	35
943	1	50	10	40
944	1	50	10	45
945	1	50	15	5
946	1	50	15	10
947	1	50	15	15
948	1	50	15	20
949	1	50	15	25
950	1	50	15	30
951	1	50	15	35
952	1	50	15	40
953	1	50	15	45
954	1	50	20	5
955	1	50	20	10
956	1	50	20	15
957	1	50	20	20
958	1	50	20	25
959	1	50	20	30
960	1	50	20	35
961	1	50	20	40
962	1	50	20	45
963	1	50	25	5
964	1	50	25	10
965	1	50	25	15
966	1	50	25	20
967	1	50	25	25
968	1	50	25	30
969	1	50	25	35
970	1	50	25	40
971	1	50	25	45
972	1	50	30	5
973	1	50	30	10
974	1	50	30	15
975	1	50	30	20
976	1	50	30	25
977	1	50	30	30
978	1	50	30	35
979	1	50	30	40
980	1	50	30	45
981	1	50	35	5
982	1	50	35	10
983	1	50	35	15
984	1	50	35	20
985	1	50	35	25
986	1	50	35	30
987	1	50	35	35
988	1	50	35	40
989	1	50	35	45
990	1	50	40	5
991	1	50	40	10
992	1	50	40	15
993	1	50	40	20
994	1	50	40	25
995	1	50	40	30
996	1	50	40	35
997	1	50	40	40
998	1	50	40	45
999	1	50	45	5
1000	1	50	45	10
1001	1	50	45	15
1002	1	50	45	20
1003	1	50	45	25
1004	1	50	45	30
1005	1	50	45	35
1006	1	50	45	40
1007	1	50	45	45
1008	1	60	5	5
1009	1	60	5	10
1010	1	60	5	15
1011	1	60	5	20
1012	1	60	5	25
1013	1	60	5	30
1014	1	60	5	35
1015	1	60	5	40
1016	1	60	5	45
1017	1	60	10	5
1018	1	60	10	10
1019	1	60	10	15
1020	1	60	10	20
1021	1	60	10	25
1022	1	60	10	30
1023	1	60	10	35
1024	1	60	10	40
1025	1	60	10	45
1026	1	60	15	5
1027	1	60	15	10
1028	1	60	15	15
1029	1	60	15	20
1030	1	60	15	25
1031	1	60	15	30
1032	1	60	15	35
1033	1	60	15	40
1034	1	60	15	45
1035	1	60	20	5
1036	1	60	20	10
1037	1	60	20	15
1038	1	60	20	20
1039	1	60	20	25
1040	1	60	20	30
1041	1	60	20	35
1042	1	60	20	40
1043	1	60	20	45
1044	1	60	25	5
1045	1	60	25	10
1046	1	60	25	15
1047	1	60	25	20
1048	1	60	25	25
1049	1	60	25	30
1050	1	60	25	35
1051	1	60	25	40
1052	1	60	25	45
1053	1	60	30	5
1054	1	60	30	10
1055	1	60	30	15
1056	1	60	30	20
1057	1	60	30	25
1058	1	60	30	30
1059	1	60	30	35
1060	1	60	30	40
1061	1	60	30	45
1062	1	60	35	5
1063	1	60	35	10
1064	1	60	35	15
1065	1	60	35	20
1066	1	60	35	25
1067	1	60	35	30
1068	1	60	35	35
1069	1	60	35	40
1070	1	60	35	45
1071	1	60	40	5
1072	1	60	40	10
1073	1	60	40	15
1074	1	60	40	20
1075	1	60	40	25
1076	1	60	40	30
1077	1	60	40	35
1078	1	60	40	40
1079	1	60	40	45
1080	1	60	45	5
1081	1	60	45	10
1082	1	60	45	15
1083	1	60	45	20
1084	1	60	45	25
1085	1	60	45	30
1086	1	60	45	35
1087	1	60	45	40
1088	1	60	45	45
1089	1	70	5	5
1090	1	70	5	10
1091	1	70	5	15
1092	1	70	5	20
1093	1	70	5	25
1094	1	70	5	30
1095	1	70	5	35
1096	1	70	5	40
1097	1	70	5	45
1098	1	70	10	5
1099	1	70	10	10
1100	1	70	10	15
1101	1	70	10	20
1102	1	70	10	25
1103	1	70	10	30
1104	1	70	10	35
1105	1	70	10	40
1106	1	70	10	45
1107	1	70	15	5
1108	1	70	15	10
1109	1	70	15	15
1110	1	70	15	20
1111	1	70	15	25
1112	1	70	15	30
1113	1	70	15	35
1114	1	70	15	40
1115	1	70	15	45
1116	1	70	20	5
1117	1	70	20	10
1118	1	70	20	15
1119	1	70	20	20
1120	1	70	20	25
1121	1	70	20	30
1122	1	70	20	35
1123	1	70	20	40
1124	1	70	20	45
1125	1	70	25	5
1126	1	70	25	10
1127	1	70	25	15
1128	1	70	25	20
1129	1	70	25	25
1130	1	70	25	30
1131	1	70	25	35
1132	1	70	25	40
1133	1	70	25	45
1134	1	70	30	5
1135	1	70	30	10
1136	1	70	30	15
1137	1	70	30	20
1138	1	70	30	25
1139	1	70	30	30
1140	1	70	30	35
1141	1	70	30	40
1142	1	70	30	45
1143	1	70	35	5
1144	1	70	35	10
1145	1	70	35	15
1146	1	70	35	20
1147	1	70	35	25
1148	1	70	35	30
1149	1	70	35	35
1150	1	70	35	40
1151	1	70	35	45
1152	1	70	40	5
1153	1	70	40	10
1154	1	70	40	15
1155	1	70	40	20
1156	1	70	40	25
1157	1	70	40	30
1158	1	70	40	35
1159	1	70	40	40
1160	1	70	40	45
1161	1	70	45	5
1162	1	70	45	10
1163	1	70	45	15
1164	1	70	45	20
1165	1	70	45	25
1166	1	70	45	30
1167	1	70	45	35
1168	1	70	45	40
1169	1	70	45	45
1170	1	80	5	5
1171	1	80	5	10
1172	1	80	5	15
1173	1	80	5	20
1174	1	80	5	25
1175	1	80	5	30
1176	1	80	5	35
1177	1	80	5	40
1178	1	80	5	45
1179	1	80	10	5
1180	1	80	10	10
1181	1	80	10	15
1182	1	80	10	20
1183	1	80	10	25
1184	1	80	10	30
1185	1	80	10	35
1186	1	80	10	40
1187	1	80	10	45
1188	1	80	15	5
1189	1	80	15	10
1190	1	80	15	15
1191	1	80	15	20
1192	1	80	15	25
1193	1	80	15	30
1194	1	80	15	35
1195	1	80	15	40
1196	1	80	15	45
1197	1	80	20	5
1198	1	80	20	10
1199	1	80	20	15
1200	1	80	20	20
1201	1	80	20	25
1202	1	80	20	30
1203	1	80	20	35
1204	1	80	20	40
1205	1	80	20	45
1206	1	80	25	5
1207	1	80	25	10
1208	1	80	25	15
1209	1	80	25	20
1210	1	80	25	25
1211	1	80	25	30
1212	1	80	25	35
1213	1	80	25	40
1214	1	80	25	45
1215	1	80	30	5
1216	1	80	30	10
1217	1	80	30	15
1218	1	80	30	20
1219	1	80	30	25
1220	1	80	30	30
1221	1	80	30	35
1222	1	80	30	40
1223	1	80	30	45
1224	1	80	35	5
1225	1	80	35	10
1226	1	80	35	15
1227	1	80	35	20
1228	1	80	35	25
1229	1	80	35	30
1230	1	80	35	35
1231	1	80	35	40
1232	1	80	35	45
1233	1	80	40	5
1234	1	80	40	10
1235	1	80	40	15
1236	1	80	40	20
1237	1	80	40	25
1238	1	80	40	30
1239	1	80	40	35
1240	1	80	40	40
1241	1	80	40	45
1242	1	80	45	5
1243	1	80	45	10
1244	1	80	45	15
1245	1	80	45	20
1246	1	80	45	25
1247	1	80	45	30
1248	1	80	45	35
1249	1	80	45	40
1250	1	80	45	45
1251	1	90	5	5
1252	1	90	5	10
1253	1	90	5	15
1254	1	90	5	20
1255	1	90	5	25
1256	1	90	5	30
1257	1	90	5	35
1258	1	90	5	40
1259	1	90	5	45
1260	1	90	10	5
1261	1	90	10	10
1262	1	90	10	15
1263	1	90	10	20
1264	1	90	10	25
1265	1	90	10	30
1266	1	90	10	35
1267	1	90	10	40
1268	1	90	10	45
1269	1	90	15	5
1270	1	90	15	10
1271	1	90	15	15
1272	1	90	15	20
1273	1	90	15	25
1274	1	90	15	30
1275	1	90	15	35
1276	1	90	15	40
1277	1	90	15	45
1278	1	90	20	5
1279	1	90	20	10
1280	1	90	20	15
1281	1	90	20	20
1282	1	90	20	25
1283	1	90	20	30
1284	1	90	20	35
1285	1	90	20	40
1286	1	90	20	45
1287	1	90	25	5
1288	1	90	25	10
1289	1	90	25	15
1290	1	90	25	20
1291	1	90	25	25
1292	1	90	25	30
1293	1	90	25	35
1294	1	90	25	40
1295	1	90	25	45
1296	1	90	30	5
1297	1	90	30	10
1298	1	90	30	15
1299	1	90	30	20
1300	1	90	30	25
1301	1	90	30	30
1302	1	90	30	35
1303	1	90	30	40
1304	1	90	30	45
1305	1	90	35	5
1306	1	90	35	10
1307	1	90	35	15
1308	1	90	35	20
1309	1	90	35	25
1310	1	90	35	30
1311	1	90	35	35
1312	1	90	35	40
1313	1	90	35	45
1314	1	90	40	5
1315	1	90	40	10
1316	1	90	40	15
1317	1	90	40	20
1318	1	90	40	25
1319	1	90	40	30
1320	1	90	40	35
1321	1	90	40	40
1322	1	90	40	45
1323	1	90	45	5
1324	1	90	45	10
1325	1	90	45	15
1326	1	90	45	20
1327	1	90	45	25
1328	1	90	45	30
1329	1	90	45	35
1330	1	90	45	40
1331	1	90	45	45
	  
ELEMent
!   n     mat  type   n1      n2      n3      n4      n5      n6      n7      n8
1	1	3	1	9	117	44	45	198	603	513
2	1	3	45	198	603	513	46	199	604	514
3	1	3	46	199	604	514	47	200	605	515
4	1	3	47	200	605	515	48	201	606	516
5	1	3	48	201	606	516	49	202	607	517
6	1	3	49	202	607	517	50	203	608	518
7	1	3	50	203	608	518	51	204	609	519
8	1	3	51	204	609	519	52	205	610	520
9	1	3	52	205	610	520	53	206	611	521
10	1	3	53	206	611	521	5	81	522	116
11	1	3	44	117	118	43	513	603	612	504
12	1	3	513	603	612	504	514	604	613	505
13	1	3	514	604	613	505	515	605	614	506
14	1	3	515	605	614	506	516	606	615	507
15	1	3	516	606	615	507	517	607	616	508
16	1	3	517	607	616	508	518	608	617	509
17	1	3	518	608	617	509	519	609	618	510
18	1	3	519	609	618	510	520	610	619	511
19	1	3	520	610	619	511	521	611	620	512
20	1	3	521	611	620	512	116	522	523	115
21	1	3	43	118	119	42	504	612	621	495
22	1	3	504	612	621	495	505	613	622	496
23	1	3	505	613	622	496	506	614	623	497
24	1	3	506	614	623	497	507	615	624	498
25	1	3	507	615	624	498	508	616	625	499
26	1	3	508	616	625	499	509	617	626	500
27	1	3	509	617	626	500	510	618	627	501
28	1	3	510	618	627	501	511	619	628	502
29	1	3	511	619	628	502	512	620	629	503
30	1	3	512	620	629	503	115	523	524	114
31	1	3	42	119	120	41	495	621	630	486
32	1	3	495	621	630	486	496	622	631	487
33	1	3	496	622	631	487	497	623	632	488
34	1	3	497	623	632	488	498	624	633	489
35	1	3	498	624	633	489	499	625	634	490
36	1	3	499	625	634	490	500	626	635	491
37	1	3	500	626	635	491	501	627	636	492
38	1	3	501	627	636	492	502	628	637	493
39	1	3	502	628	637	493	503	629	638	494
40	1	3	503	629	638	494	114	524	525	113
41	1	3	41	120	121	40	486	630	639	477
42	1	3	486	630	639	477	487	631	640	478
43	1	3	487	631	640	478	488	632	641	479
44	1	3	488	632	641	479	489	633	642	480
45	1	3	489	633	642	480	490	634	643	481
46	1	3	490	634	643	481	491	635	644	482
47	1	3	491	635	644	482	492	636	645	483
48	1	3	492	636	645	483	493	637	646	484
49	1	3	493	637	646	484	494	638	647	485
50	1	3	494	638	647	485	113	525	526	112
51	1	3	40	121	122	39	477	639	648	468
52	1	3	477	639	648	468	478	640	649	469
53	1	3	478	640	649	469	479	641	650	470
54	1	3	479	641	650	470	480	642	651	471
55	1	3	480	642	651	471	481	643	652	472
56	1	3	481	643	652	472	482	644	653	473
57	1	3	482	644	653	473	483	645	654	474
58	1	3	483	645	654	474	484	646	655	475
59	1	3	484	646	655	475	485	647	656	476
60	1	3	485	647	656	476	112	526	527	111
61	1	3	39	122	123	38	468	648	657	459
62	1	3	468	648	657	459	469	649	658	460
63	1	3	469	649	658	460	470	650	659	461
64	1	3	470	650	659	461	471	651	660	462
65	1	3	471	651	660	462	472	652	661	463
66	1	3	472	652	661	463	473	653	662	464
67	1	3	473	653	662	464	474	654	663	465
68	1	3	474	654	663	465	475	655	664	466
69	1	3	475	655	664	466	476	656	665	467
70	1	3	476	656	665	467	111	527	528	110
71	1	3	38	123	124	37	459	657	666	450
72	1	3	459	657	666	450	460	658	667	451
73	1	3	460	658	667	451	461	659	668	452
74	1	3	461	659	668	452	462	660	669	453
75	1	3	462	660	669	453	463	661	670	454
76	1	3	463	661	670	454	464	662	671	455
77	1	3	464	662	671	455	465	663	672	456
78	1	3	465	663	672	456	466	664	673	457
79	1	3	466	664	673	457	467	665	674	458
80	1	3	467	665	674	458	110	528	529	109
81	1	3	37	124	125	36	450	666	675	441
82	1	3	450	666	675	441	451	667	676	442
83	1	3	451	667	676	442	452	668	677	443
84	1	3	452	668	677	443	453	669	678	444
85	1	3	453	669	678	444	454	670	679	445
86	1	3	454	670	679	445	455	671	680	446
87	1	3	455	671	680	446	456	672	681	447
88	1	3	456	672	681	447	457	673	682	448
89	1	3	457	673	682	448	458	674	683	449
90	1	3	458	674	683	449	109	529	530	108
91	1	3	36	125	35	4	441	675	432	72
92	1	3	441	675	432	72	442	676	433	73
93	1	3	442	676	433	73	443	677	434	74
94	1	3	443	677	434	74	444	678	435	75
95	1	3	444	678	435	75	445	679	436	76
96	1	3	445	679	436	76	446	680	437	77
97	1	3	446	680	437	77	447	681	438	78
98	1	3	447	681	438	78	448	682	439	79
99	1	3	448	682	439	79	449	683	440	80
100	1	3	449	683	440	80	108	530	107	8
101	1	3	9	10	126	117	198	207	684	603
102	1	3	198	207	684	603	199	208	685	604
103	1	3	199	208	685	604	200	209	686	605
104	1	3	200	209	686	605	201	210	687	606
105	1	3	201	210	687	606	202	211	688	607
106	1	3	202	211	688	607	203	212	689	608
107	1	3	203	212	689	608	204	213	690	609
108	1	3	204	213	690	609	205	214	691	610
109	1	3	205	214	691	610	206	215	692	611
110	1	3	206	215	692	611	81	82	531	522
111	1	3	117	126	127	118	603	684	693	612
112	1	3	603	684	693	612	604	685	694	613
113	1	3	604	685	694	613	605	686	695	614
114	1	3	605	686	695	614	606	687	696	615
115	1	3	606	687	696	615	607	688	697	616
116	1	3	607	688	697	616	608	689	698	617
117	1	3	608	689	698	617	609	690	699	618
118	1	3	609	690	699	618	610	691	700	619
119	1	3	610	691	700	619	611	692	701	620
120	1	3	611	692	701	620	522	531	532	523
121	1	3	118	127	128	119	612	693	702	621
122	1	3	612	693	702	621	613	694	703	622
123	1	3	613	694	703	622	614	695	704	623
124	1	3	614	695	704	623	615	696	705	624
125	1	3	615	696	705	624	616	697	706	625
126	1	3	616	697	706	625	617	698	707	626
127	1	3	617	698	707	626	618	699	708	627
128	1	3	618	699	708	627	619	700	709	628
129	1	3	619	700	709	628	620	701	710	629
130	1	3	620	701	710	629	523	532	533	524
131	1	3	119	128	129	120	621	702	711	630
132	1	3	621	702	711	630	622	703	712	631
133	1	3	622	703	712	631	623	704	713	632
134	1	3	623	704	713	632	624	705	714	633
135	1	3	624	705	714	633	625	706	715	634
136	1	3	625	706	715	634	626	707	716	635
137	1	3	626	707	716	635	627	708	717	636
138	1	3	627	708	717	636	628	709	718	637
139	1	3	628	709	718	637	629	710	719	638
140	1	3	629	710	719	638	524	533	534	525
141	1	3	120	129	130	121	630	711	720	639
142	1	3	630	711	720	639	631	712	721	640
143	1	3	631	712	721	640	632	713	722	641
144	1	3	632	713	722	641	633	714	723	642
145	1	3	633	714	723	642	634	715	724	643
146	1	3	634	715	724	643	635	716	725	644
147	1	3	635	716	725	644	636	717	726	645
148	1	3	636	717	726	645	637	718	727	646
149	1	3	637	718	727	646	638	719	728	647
150	1	3	638	719	728	647	525	534	535	526
151	1	3	121	130	131	122	639	720	729	648
152	1	3	639	720	729	648	640	721	730	649
153	1	3	640	721	730	649	641	722	731	650
154	1	3	641	722	731	650	642	723	732	651
155	1	3	642	723	732	651	643	724	733	652
156	1	3	643	724	733	652	644	725	734	653
157	1	3	644	725	734	653	645	726	735	654
158	1	3	645	726	735	654	646	727	736	655
159	1	3	646	727	736	655	647	728	737	656
160	1	3	647	728	737	656	526	535	536	527
161	1	3	122	131	132	123	648	729	738	657
162	1	3	648	729	738	657	649	730	739	658
163	1	3	649	730	739	658	650	731	740	659
164	1	3	650	731	740	659	651	732	741	660
165	1	3	651	732	741	660	652	733	742	661
166	1	3	652	733	742	661	653	734	743	662
167	1	3	653	734	743	662	654	735	744	663
168	1	3	654	735	744	663	655	736	745	664
169	1	3	655	736	745	664	656	737	746	665
170	1	3	656	737	746	665	527	536	537	528
171	1	3	123	132	133	124	657	738	747	666
172	1	3	657	738	747	666	658	739	748	667
173	1	3	658	739	748	667	659	740	749	668
174	1	3	659	740	749	668	660	741	750	669
175	1	3	660	741	750	669	661	742	751	670
176	1	3	661	742	751	670	662	743	752	671
177	1	3	662	743	752	671	663	744	753	672
178	1	3	663	744	753	672	664	745	754	673
179	1	3	664	745	754	673	665	746	755	674
180	1	3	665	746	755	674	528	537	538	529
181	1	3	124	133	134	125	666	747	756	675
182	1	3	666	747	756	675	667	748	757	676
183	1	3	667	748	757	676	668	749	758	677
184	1	3	668	749	758	677	669	750	759	678
185	1	3	669	750	759	678	670	751	760	679
186	1	3	670	751	760	679	671	752	761	680
187	1	3	671	752	761	680	672	753	762	681
188	1	3	672	753	762	681	673	754	763	682
189	1	3	673	754	763	682	674	755	764	683
190	1	3	674	755	764	683	529	538	539	530
191	1	3	125	134	34	35	675	756	423	432
192	1	3	675	756	423	432	676	757	424	433
193	1	3	676	757	424	433	677	758	425	434
194	1	3	677	758	425	434	678	759	426	435
195	1	3	678	759	426	435	679	760	427	436
196	1	3	679	760	427	436	680	761	428	437
197	1	3	680	761	428	437	681	762	429	438
198	1	3	681	762	429	438	682	763	430	439
199	1	3	682	763	430	439	683	764	431	440
200	1	3	683	764	431	440	530	539	106	107
201	1	3	10	11	135	126	207	216	765	684
202	1	3	207	216	765	684	208	217	766	685
203	1	3	208	217	766	685	209	218	767	686
204	1	3	209	218	767	686	210	219	768	687
205	1	3	210	219	768	687	211	220	769	688
206	1	3	211	220	769	688	212	221	770	689
207	1	3	212	221	770	689	213	222	771	690
208	1	3	213	222	771	690	214	223	772	691
209	1	3	214	223	772	691	215	224	773	692
210	1	3	215	224	773	692	82	83	540	531
211	1	3	126	135	136	127	684	765	774	693
212	1	3	684	765	774	693	685	766	775	694
213	1	3	685	766	775	694	686	767	776	695
214	1	3	686	767	776	695	687	768	777	696
215	1	3	687	768	777	696	688	769	778	697
216	1	3	688	769	778	697	689	770	779	698
217	1	3	689	770	779	698	690	771	780	699
218	1	3	690	771	780	699	691	772	781	700
219	1	3	691	772	781	700	692	773	782	701
220	1	3	692	773	782	701	531	540	541	532
221	1	3	127	136	137	128	693	774	783	702
222	1	3	693	774	783	702	694	775	784	703
223	1	3	694	775	784	703	695	776	785	704
224	1	3	695	776	785	704	696	777	786	705
225	1	3	696	777	786	705	697	778	787	706
226	1	3	697	778	787	706	698	779	788	707
227	1	3	698	779	788	707	699	780	789	708
228	1	3	699	780	789	708	700	781	790	709
229	1	3	700	781	790	709	701	782	791	710
230	1	3	701	782	791	710	532	541	542	533
231	1	3	128	137	138	129	702	783	792	711
232	1	3	702	783	792	711	703	784	793	712
233	1	3	703	784	793	712	704	785	794	713
234	1	3	704	785	794	713	705	786	795	714
235	1	3	705	786	795	714	706	787	796	715
236	1	3	706	787	796	715	707	788	797	716
237	1	3	707	788	797	716	708	789	798	717
238	1	3	708	789	798	717	709	790	799	718
239	1	3	709	790	799	718	710	791	800	719
240	1	3	710	791	800	719	533	542	543	534
241	1	3	129	138	139	130	711	792	801	720
242	1	3	711	792	801	720	712	793	802	721
243	1	3	712	793	802	721	713	794	803	722
244	1	3	713	794	803	722	714	795	804	723
245	1	3	714	795	804	723	715	796	805	724
246	1	3	715	796	805	724	716	797	806	725
247	1	3	716	797	806	725	717	798	807	726
248	1	3	717	798	807	726	718	799	808	727
249	1	3	718	799	808	727	719	800	809	728
250	1	3	719	800	809	728	534	543	544	535
251	1	3	130	139	140	131	720	801	810	729
252	1	3	720	801	810	729	721	802	811	730
253	1	3	721	802	811	730	722	803	812	731
254	1	3	722	803	812	731	723	804	813	732
255	1	3	723	804	813	732	724	805	814	733
256	1	3	724	805	814	733	725	806	815	734
257	1	3	725	806	815	734	726	807	816	735
258	1	3	726	807	816	735	727	808	817	736
259	1	3	727	808	817	736	728	809	818	737
260	1	3	728	809	818	737	535	544	545	536
261	1	3	131	140	141	132	729	810	819	738
262	1	3	729	810	819	738	730	811	820	739
263	1	3	730	811	820	739	731	812	821	740
264	1	3	731	812	821	740	732	813	822	741
265	1	3	732	813	822	741	733	814	823	742
266	1	3	733	814	823	742	734	815	824	743
267	1	3	734	815	824	743	735	816	825	744
268	1	3	735	816	825	744	736	817	826	745
269	1	3	736	817	826	745	737	818	827	746
270	1	3	737	818	827	746	536	545	546	537
271	1	3	132	141	142	133	738	819	828	747
272	1	3	738	819	828	747	739	820	829	748
273	1	3	739	820	829	748	740	821	830	749
274	1	3	740	821	830	749	741	822	831	750
275	1	3	741	822	831	750	742	823	832	751
276	1	3	742	823	832	751	743	824	833	752
277	1	3	743	824	833	752	744	825	834	753
278	1	3	744	825	834	753	745	826	835	754
279	1	3	745	826	835	754	746	827	836	755
280	1	3	746	827	836	755	537	546	547	538
281	1	3	133	142	143	134	747	828	837	756
282	1	3	747	828	837	756	748	829	838	757
283	1	3	748	829	838	757	749	830	839	758
284	1	3	749	830	839	758	750	831	840	759
285	1	3	750	831	840	759	751	832	841	760
286	1	3	751	832	841	760	752	833	842	761
287	1	3	752	833	842	761	753	834	843	762
288	1	3	753	834	843	762	754	835	844	763
289	1	3	754	835	844	763	755	836	845	764
290	1	3	755	836	845	764	538	547	548	539
291	1	3	134	143	33	34	756	837	414	423
292	1	3	756	837	414	423	757	838	415	424
293	1	3	757	838	415	424	758	839	416	425
294	1	3	758	839	416	425	759	840	417	426
295	1	3	759	840	417	426	760	841	418	427
296	1	3	760	841	418	427	761	842	419	428
297	1	3	761	842	419	428	762	843	420	429
298	1	3	762	843	420	429	763	844	421	430
299	1	3	763	844	421	430	764	845	422	431
300	1	3	764	845	422	431	539	548	105	106
301	1	3	11	12	144	135	216	225	846	765
302	1	3	216	225	846	765	217	226	847	766
303	1	3	217	226	847	766	218	227	848	767
304	1	3	218	227	848	767	219	228	849	768
305	1	3	219	228	849	768	220	229	850	769
306	1	3	220	229	850	769	221	230	851	770
307	1	3	221	230	851	770	222	231	852	771
308	1	3	222	231	852	771	223	232	853	772
309	1	3	223	232	853	772	224	233	854	773
310	1	3	224	233	854	773	83	84	549	540
311	1	3	135	144	145	136	765	846	855	774
312	1	3	765	846	855	774	766	847	856	775
313	1	3	766	847	856	775	767	848	857	776
314	1	3	767	848	857	776	768	849	858	777
315	1	3	768	849	858	777	769	850	859	778
316	1	3	769	850	859	778	770	851	860	779
317	1	3	770	851	860	779	771	852	861	780
318	1	3	771	852	861	780	772	853	862	781
319	1	3	772	853	862	781	773	854	863	782
320	1	3	773	854	863	782	540	549	550	541
321	1	3	136	145	146	137	774	855	864	783
322	1	3	774	855	864	783	775	856	865	784
323	1	3	775	856	865	784	776	857	866	785
324	1	3	776	857	866	785	777	858	867	786
325	1	3	777	858	867	786	778	859	868	787
326	1	3	778	859	868	787	779	860	869	788
327	1	3	779	860	869	788	780	861	870	789
328	1	3	780	861	870	789	781	862	871	790
329	1	3	781	862	871	790	782	863	872	791
330	1	3	782	863	872	791	541	550	551	542
331	1	3	137	146	147	138	783	864	873	792
332	1	3	783	864	873	792	784	865	874	793
333	1	3	784	865	874	793	785	866	875	794
334	1	3	785	866	875	794	786	867	876	795
335	1	3	786	867	876	795	787	868	877	796
336	1	3	787	868	877	796	788	869	878	797
337	1	3	788	869	878	797	789	870	879	798
338	1	3	789	870	879	798	790	871	880	799
339	1	3	790	871	880	799	791	872	881	800
340	1	3	791	872	881	800	542	551	552	543
341	1	3	138	147	148	139	792	873	882	801
342	1	3	792	873	882	801	793	874	883	802
343	1	3	793	874	883	802	794	875	884	803
344	1	3	794	875	884	803	795	876	885	804
345	1	3	795	876	885	804	796	877	886	805
346	1	3	796	877	886	805	797	878	887	806
347	1	3	797	878	887	806	798	879	888	807
348	1	3	798	879	888	807	799	880	889	808
349	1	3	799	880	889	808	800	881	890	809
350	1	3	800	881	890	809	543	552	553	544
351	1	3	139	148	149	140	801	882	891	810
352	1	3	801	882	891	810	802	883	892	811
353	1	3	802	883	892	811	803	884	893	812
354	1	3	803	884	893	812	804	885	894	813
355	1	3	804	885	894	813	805	886	895	814
356	1	3	805	886	895	814	806	887	896	815
357	1	3	806	887	896	815	807	888	897	816
358	1	3	807	888	897	816	808	889	898	817
359	1	3	808	889	898	817	809	890	899	818
360	1	3	809	890	899	818	544	553	554	545
361	1	3	140	149	150	141	810	891	900	819
362	1	3	810	891	900	819	811	892	901	820
363	1	3	811	892	901	820	812	893	902	821
364	1	3	812	893	902	821	813	894	903	822
365	1	3	813	894	903	822	814	895	904	823
366	1	3	814	895	904	823	815	896	905	824
367	1	3	815	896	905	824	816	897	906	825
368	1	3	816	897	906	825	817	898	907	826
369	1	3	817	898	907	826	818	899	908	827
370	1	3	818	899	908	827	545	554	555	546
371	1	3	141	150	151	142	819	900	909	828
372	1	3	819	900	909	828	820	901	910	829
373	1	3	820	901	910	829	821	902	911	830
374	1	3	821	902	911	830	822	903	912	831
375	1	3	822	903	912	831	823	904	913	832
376	1	3	823	904	913	832	824	905	914	833
377	1	3	824	905	914	833	825	906	915	834
378	1	3	825	906	915	834	826	907	916	835
379	1	3	826	907	916	835	827	908	917	836
380	1	3	827	908	917	836	546	555	556	547
381	1	3	142	151	152	143	828	909	918	837
382	1	3	828	909	918	837	829	910	919	838
383	1	3	829	910	919	838	830	911	920	839
384	1	3	830	911	920	839	831	912	921	840
385	1	3	831	912	921	840	832	913	922	841
386	1	3	832	913	922	841	833	914	923	842
387	1	3	833	914	923	842	834	915	924	843
388	1	3	834	915	924	843	835	916	925	844
389	1	3	835	916	925	844	836	917	926	845
390	1	3	836	917	926	845	547	556	557	548
391	1	3	143	152	32	33	837	918	405	414
392	1	3	837	918	405	414	838	919	406	415
393	1	3	838	919	406	415	839	920	407	416
394	1	3	839	920	407	416	840	921	408	417
395	1	3	840	921	408	417	841	922	409	418
396	1	3	841	922	409	418	842	923	410	419
397	1	3	842	923	410	419	843	924	411	420
398	1	3	843	924	411	420	844	925	412	421
399	1	3	844	925	412	421	845	926	413	422
400	1	3	845	926	413	422	548	557	104	105
401	1	3	12	13	153	144	225	234	927	846
402	1	3	225	234	927	846	226	235	928	847
403	1	3	226	235	928	847	227	236	929	848
404	1	3	227	236	929	848	228	237	930	849
405	1	3	228	237	930	849	229	238	931	850
406	1	3	229	238	931	850	230	239	932	851
407	1	3	230	239	932	851	231	240	933	852
408	1	3	231	240	933	852	232	241	934	853
409	1	3	232	241	934	853	233	242	935	854
410	1	3	233	242	935	854	84	85	558	549
411	1	3	144	153	154	145	846	927	936	855
412	1	3	846	927	936	855	847	928	937	856
413	1	3	847	928	937	856	848	929	938	857
414	1	3	848	929	938	857	849	930	939	858
415	1	3	849	930	939	858	850	931	940	859
416	1	3	850	931	940	859	851	932	941	860
417	1	3	851	932	941	860	852	933	942	861
418	1	3	852	933	942	861	853	934	943	862
419	1	3	853	934	943	862	854	935	944	863
420	1	3	854	935	944	863	549	558	559	550
421	1	3	145	154	155	146	855	936	945	864
422	1	3	855	936	945	864	856	937	946	865
423	1	3	856	937	946	865	857	938	947	866
424	1	3	857	938	947	866	858	939	948	867
425	1	3	858	939	948	867	859	940	949	868
426	1	3	859	940	949	868	860	941	950	869
427	1	3	860	941	950	869	861	942	951	870
428	1	3	861	942	951	870	862	943	952	871
429	1	3	862	943	952	871	863	944	953	872
430	1	3	863	944	953	872	550	559	560	551
431	1	3	146	155	156	147	864	945	954	873
432	1	3	864	945	954	873	865	946	955	874
433	1	3	865	946	955	874	866	947	956	875
434	1	3	866	947	956	875	867	948	957	876
435	1	3	867	948	957	876	868	949	958	877
436	1	3	868	949	958	877	869	950	959	878
437	1	3	869	950	959	878	870	951	960	879
438	1	3	870	951	960	879	871	952	961	880
439	1	3	871	952	961	880	872	953	962	881
440	1	3	872	953	962	881	551	560	561	552
441	1	3	147	156	157	148	873	954	963	882
442	1	3	873	954	963	882	874	955	964	883
443	1	3	874	955	964	883	875	956	965	884
444	1	3	875	956	965	884	876	957	966	885
445	1	3	876	957	966	885	877	958	967	886
446	1	3	877	958	967	886	878	959	968	887
447	1	3	878	959	968	887	879	960	969	888
448	1	3	879	960	969	888	880	961	970	889
449	1	3	880	961	970	889	881	962	971	890
450	1	3	881	962	971	890	552	561	562	553
451	1	3	148	157	158	149	882	963	972	891
452	1	3	882	963	972	891	883	964	973	892
453	1	3	883	964	973	892	884	965	974	893
454	1	3	884	965	974	893	885	966	975	894
455	1	3	885	966	975	894	886	967	976	895
456	1	3	886	967	976	895	887	968	977	896
457	1	3	887	968	977	896	888	969	978	897
458	1	3	888	969	978	897	889	970	979	898
459	1	3	889	970	979	898	890	971	980	899
460	1	3	890	971	980	899	553	562	563	554
461	1	3	149	158	159	150	891	972	981	900
462	1	3	891	972	981	900	892	973	982	901
463	1	3	892	973	982	901	893	974	983	902
464	1	3	893	974	983	902	894	975	984	903
465	1	3	894	975	984	903	895	976	985	904
466	1	3	895	976	985	904	896	977	986	905
467	1	3	896	977	986	905	897	978	987	906
468	1	3	897	978	987	906	898	979	988	907
469	1	3	898	979	988	907	899	980	989	908
470	1	3	899	980	989	908	554	563	564	555
471	1	3	150	159	160	151	900	981	990	909
472	1	3	900	981	990	909	901	982	991	910
473	1	3	901	982	991	910	902	983	992	911
474	1	3	902	983	992	911	903	984	993	912
475	1	3	903	984	993	912	904	985	994	913
476	1	3	904	985	994	913	905	986	995	914
477	1	3	905	986	995	914	906	987	996	915
478	1	3	906	987	996	915	907	988	997	916
479	1	3	907	988	997	916	908	989	998	917
480	1	3	908	989	998	917	555	564	565	556
481	1	3	151	160	161	152	909	990	999	918
482	1	3	909	990	999	918	910	991	1000	919
483	1	3	910	991	1000	919	911	992	1001	920
484	1	3	911	992	1001	920	912	993	1002	921
485	1	3	912	993	1002	921	913	994	1003	922
486	1	3	913	994	1003	922	914	995	1004	923
487	1	3	914	995	1004	923	915	996	1005	924
488	1	3	915	996	1005	924	916	997	1006	925
489	1	3	916	997	1006	925	917	998	1007	926
490	1	3	917	998	1007	926	556	565	566	557
491	1	3	152	161	31	32	918	999	396	405
492	1	3	918	999	396	405	919	1000	397	406
493	1	3	919	1000	397	406	920	1001	398	407
494	1	3	920	1001	398	407	921	1002	399	408
495	1	3	921	1002	399	408	922	1003	400	409
496	1	3	922	1003	400	409	923	1004	401	410
497	1	3	923	1004	401	410	924	1005	402	411
498	1	3	924	1005	402	411	925	1006	403	412
499	1	3	925	1006	403	412	926	1007	404	413
500	1	3	926	1007	404	413	557	566	103	104
501	1	3	13	14	162	153	234	243	1008	927
502	1	3	234	243	1008	927	235	244	1009	928
503	1	3	235	244	1009	928	236	245	1010	929
504	1	3	236	245	1010	929	237	246	1011	930
505	1	3	237	246	1011	930	238	247	1012	931
506	1	3	238	247	1012	931	239	248	1013	932
507	1	3	239	248	1013	932	240	249	1014	933
508	1	3	240	249	1014	933	241	250	1015	934
509	1	3	241	250	1015	934	242	251	1016	935
510	1	3	242	251	1016	935	85	86	567	558
511	1	3	153	162	163	154	927	1008	1017	936
512	1	3	927	1008	1017	936	928	1009	1018	937
513	1	3	928	1009	1018	937	929	1010	1019	938
514	1	3	929	1010	1019	938	930	1011	1020	939
515	1	3	930	1011	1020	939	931	1012	1021	940
516	1	3	931	1012	1021	940	932	1013	1022	941
517	1	3	932	1013	1022	941	933	1014	1023	942
518	1	3	933	1014	1023	942	934	1015	1024	943
519	1	3	934	1015	1024	943	935	1016	1025	944
520	1	3	935	1016	1025	944	558	567	568	559
521	1	3	154	163	164	155	936	1017	1026	945
522	1	3	936	1017	1026	945	937	1018	1027	946
523	1	3	937	1018	1027	946	938	1019	1028	947
524	1	3	938	1019	1028	947	939	1020	1029	948
525	1	3	939	1020	1029	948	940	1021	1030	949
526	1	3	940	1021	1030	949	941	1022	1031	950
527	1	3	941	1022	1031	950	942	1023	1032	951
528	1	3	942	1023	1032	951	943	1024	1033	952
529	1	3	943	1024	1033	952	944	1025	1034	953
530	1	3	944	1025	1034	953	559	568	569	560
531	1	3	155	164	165	156	945	1026	1035	954
532	1	3	945	1026	1035	954	946	1027	1036	955
533	1	3	946	1027	1036	955	947	1028	1037	956
534	1	3	947	1028	1037	956	948	1029	1038	957
535	1	3	948	1029	1038	957	949	1030	1039	958
536	1	3	949	1030	1039	958	950	1031	1040	959
537	1	3	950	1031	1040	959	951	1032	1041	960
538	1	3	951	1032	1041	960	952	1033	1042	961
539	1	3	952	1033	1042	961	953	1034	1043	962
540	1	3	953	1034	1043	962	560	569	570	561
541	1	3	156	165	166	157	954	1035	1044	963
542	1	3	954	1035	1044	963	955	1036	1045	964
543	1	3	955	1036	1045	964	956	1037	1046	965
544	1	3	956	1037	1046	965	957	1038	1047	966
545	1	3	957	1038	1047	966	958	1039	1048	967
546	1	3	958	1039	1048	967	959	1040	1049	968
547	1	3	959	1040	1049	968	960	1041	1050	969
548	1	3	960	1041	1050	969	961	1042	1051	970
549	1	3	961	1042	1051	970	962	1043	1052	971
550	1	3	962	1043	1052	971	561	570	571	562
551	1	3	157	166	167	158	963	1044	1053	972
552	1	3	963	1044	1053	972	964	1045	1054	973
553	1	3	964	1045	1054	973	965	1046	1055	974
554	1	3	965	1046	1055	974	966	1047	1056	975
555	1	3	966	1047	1056	975	967	1048	1057	976
556	1	3	967	1048	1057	976	968	1049	1058	977
557	1	3	968	1049	1058	977	969	1050	1059	978
558	1	3	969	1050	1059	978	970	1051	1060	979
559	1	3	970	1051	1060	979	971	1052	1061	980
560	1	3	971	1052	1061	980	562	571	572	563
561	1	3	158	167	168	159	972	1053	1062	981
562	1	3	972	1053	1062	981	973	1054	1063	982
563	1	3	973	1054	1063	982	974	1055	1064	983
564	1	3	974	1055	1064	983	975	1056	1065	984
565	1	3	975	1056	1065	984	976	1057	1066	985
566	1	3	976	1057	1066	985	977	1058	1067	986
567	1	3	977	1058	1067	986	978	1059	1068	987
568	1	3	978	1059	1068	987	979	1060	1069	988
569	1	3	979	1060	1069	988	980	1061	1070	989
570	1	3	980	1061	1070	989	563	572	573	564
571	1	3	159	168	169	160	981	1062	1071	990
572	1	3	981	1062	1071	990	982	1063	1072	991
573	1	3	982	1063	1072	991	983	1064	1073	992
574	1	3	983	1064	1073	992	984	1065	1074	993
575	1	3	984	1065	1074	993	985	1066	1075	994
576	1	3	985	1066	1075	994	986	1067	1076	995
577	1	3	986	1067	1076	995	987	1068	1077	996
578	1	3	987	1068	1077	996	988	1069	1078	997
579	1	3	988	1069	1078	997	989	1070	1079	998
580	1	3	989	1070	1079	998	564	573	574	565
581	1	3	160	169	170	161	990	1071	1080	999
582	1	3	990	1071	1080	999	991	1072	1081	1000
583	1	3	991	1072	1081	1000	992	1073	1082	1001
584	1	3	992	1073	1082	1001	993	1074	1083	1002
585	1	3	993	1074	1083	1002	994	1075	1084	1003
586	1	3	994	1075	1084	1003	995	1076	1085	1004
587	1	3	995	1076	1085	1004	996	1077	1086	1005
588	1	3	996	1077	1086	1005	997	1078	1087	1006
589	1	3	997	1078	1087	1006	998	1079	1088	1007
590	1	3	998	1079	1088	1007	565	574	575	566
591	1	3	161	170	30	31	999	1080	387	396
592	1	3	999	1080	387	396	1000	1081	388	397
593	1	3	1000	1081	388	397	1001	1082	389	398
594	1	3	1001	1082	389	398	1002	1083	390	399
595	1	3	1002	1083	390	399	1003	1084	391	400
596	1	3	1003	1084	391	400	1004	1085	392	401
597	1	3	1004	1085	392	401	1005	1086	393	402
598	1	3	1005	1086	393	402	1006	1087	394	403
599	1	3	1006	1087	394	403	1007	1088	395	404
600	1	3	1007	1088	395	404	566	575	102	103
601	1	3	14	15	171	162	243	252	1089	1008
602	1	3	243	252	1089	1008	244	253	1090	1009
603	1	3	244	253	1090	1009	245	254	1091	1010
604	1	3	245	254	1091	1010	246	255	1092	1011
605	1	3	246	255	1092	1011	247	256	1093	1012
606	1	3	247	256	1093	1012	248	257	1094	1013
607	1	3	248	257	1094	1013	249	258	1095	1014
608	1	3	249	258	1095	1014	250	259	1096	1015
609	1	3	250	259	1096	1015	251	260	1097	1016
610	1	3	251	260	1097	1016	86	87	576	567
611	1	3	162	171	172	163	1008	1089	1098	1017
612	1	3	1008	1089	1098	1017	1009	1090	1099	1018
613	1	3	1009	1090	1099	1018	1010	1091	1100	1019
614	1	3	1010	1091	1100	1019	1011	1092	1101	1020
615	1	3	1011	1092	1101	1020	1012	1093	1102	1021
616	1	3	1012	1093	1102	1021	1013	1094	1103	1022
617	1	3	1013	1094	1103	1022	1014	1095	1104	1023
618	1	3	1014	1095	1104	1023	1015	1096	1105	1024
619	1	3	1015	1096	1105	1024	1016	1097	1106	1025
620	1	3	1016	1097	1106	1025	567	576	577	568
621	1	3	163	172	173	164	1017	1098	1107	1026
622	1	3	1017	1098	1107	1026	1018	1099	1108	1027
623	1	3	1018	1099	1108	1027	1019	1100	1109	1028
624	1	3	1019	1100	1109	1028	1020	1101	1110	1029
625	1	3	1020	1101	1110	1029	1021	1102	1111	1030
626	1	3	1021	1102	1111	1030	1022	1103	1112	1031
627	1	3	1022	1103	1112	1031	1023	1104	1113	1032
628	1	3	1023	1104	1113	1032	1024	1105	1114	1033
629	1	3	1024	1105	1114	1033	1025	1106	1115	1034
630	1	3	1025	1106	1115	1034	568	577	578	569
631	1	3	164	173	174	165	1026	1107	1116	1035
632	1	3	1026	1107	1116	1035	1027	1108	1117	1036
633	1	3	1027	1108	1117	1036	1028	1109	1118	1037
634	1	3	1028	1109	1118	1037	1029	1110	1119	1038
635	1	3	1029	1110	1119	1038	1030	1111	1120	1039
636	1	3	1030	1111	1120	1039	1031	1112	1121	1040
637	1	3	1031	1112	1121	1040	1032	1113	1122	1041
638	1	3	1032	1113	1122	1041	1033	1114	1123	1042
639	1	3	1033	1114	1123	1042	1034	1115	1124	1043
640	1	3	1034	1115	1124	1043	569	578	579	570
641	1	3	165	174	175	166	1035	1116	1125	1044
642	1	3	1035	1116	1125	1044	1036	1117	1126	1045
643	1	3	1036	1117	1126	1045	1037	1118	1127	1046
644	1	3	1037	1118	1127	1046	1038	1119	1128	1047
645	1	3	1038	1119	1128	1047	1039	1120	1129	1048
646	1	3	1039	1120	1129	1048	1040	1121	1130	1049
647	1	3	1040	1121	1130	1049	1041	1122	1131	1050
648	1	3	1041	1122	1131	1050	1042	1123	1132	1051
649	1	3	1042	1123	1132	1051	1043	1124	1133	1052
650	1	3	1043	1124	1133	1052	570	579	580	571
651	1	3	166	175	176	167	1044	1125	1134	1053
652	1	3	1044	1125	1134	1053	1045	1126	1135	1054
653	1	3	1045	1126	1135	1054	1046	1127	1136	1055
654	1	3	1046	1127	1136	1055	1047	1128	1137	1056
655	1	3	1047	1128	1137	1056	1048	1129	1138	1057
656	1	3	1048	1129	1138	1057	1049	1130	1139	1058
657	1	3	1049	1130	1139	1058	1050	1131	1140	1059
658	1	3	1050	1131	1140	1059	1051	1132	1141	1060
659	1	3	1051	1132	1141	1060	1052	1133	1142	1061
660	1	3	1052	1133	1142	1061	571	580	581	572
661	1	3	167	176	177	168	1053	1134	1143	1062
662	1	3	1053	1134	1143	1062	1054	1135	1144	1063
663	1	3	1054	1135	1144	1063	1055	1136	1145	1064
664	1	3	1055	1136	1145	1064	1056	1137	1146	1065
665	1	3	1056	1137	1146	1065	1057	1138	1147	1066
666	1	3	1057	1138	1147	1066	1058	1139	1148	1067
667	1	3	1058	1139	1148	1067	1059	1140	1149	1068
668	1	3	1059	1140	1149	1068	1060	1141	1150	1069
669	1	3	1060	1141	1150	1069	1061	1142	1151	1070
670	1	3	1061	1142	1151	1070	572	581	582	573
671	1	3	168	177	178	169	1062	1143	1152	1071
672	1	3	1062	1143	1152	1071	1063	1144	1153	1072
673	1	3	1063	1144	1153	1072	1064	1145	1154	1073
674	1	3	1064	1145	1154	1073	1065	1146	1155	1074
675	1	3	1065	1146	1155	1074	1066	1147	1156	1075
676	1	3	1066	1147	1156	1075	1067	1148	1157	1076
677	1	3	1067	1148	1157	1076	1068	1149	1158	1077
678	1	3	1068	1149	1158	1077	1069	1150	1159	1078
679	1	3	1069	1150	1159	1078	1070	1151	1160	1079
680	1	3	1070	1151	1160	1079	573	582	583	574
681	1	3	169	178	179	170	1071	1152	1161	1080
682	1	3	1071	1152	1161	1080	1072	1153	1162	1081
683	1	3	1072	1153	1162	1081	1073	1154	1163	1082
684	1	3	1073	1154	1163	1082	1074	1155	1164	1083
685	1	3	1074	1155	1164	1083	1075	1156	1165	1084
686	1	3	1075	1156	1165	1084	1076	1157	1166	1085
687	1	3	1076	1157	1166	1085	1077	1158	1167	1086
688	1	3	1077	1158	1167	1086	1078	1159	1168	1087
689	1	3	1078	1159	1168	1087	1079	1160	1169	1088
690	1	3	1079	1160	1169	1088	574	583	584	575
691	1	3	170	179	29	30	1080	1161	378	387
692	1	3	1080	1161	378	387	1081	1162	379	388
693	1	3	1081	1162	379	388	1082	1163	380	389
694	1	3	1082	1163	380	389	1083	1164	381	390
695	1	3	1083	1164	381	390	1084	1165	382	391
696	1	3	1084	1165	382	391	1085	1166	383	392
697	1	3	1085	1166	383	392	1086	1167	384	393
698	1	3	1086	1167	384	393	1087	1168	385	394
699	1	3	1087	1168	385	394	1088	1169	386	395
700	1	3	1088	1169	386	395	575	584	101	102
701	1	3	15	16	180	171	252	261	1170	1089
702	1	3	252	261	1170	1089	253	262	1171	1090
703	1	3	253	262	1171	1090	254	263	1172	1091
704	1	3	254	263	1172	1091	255	264	1173	1092
705	1	3	255	264	1173	1092	256	265	1174	1093
706	1	3	256	265	1174	1093	257	266	1175	1094
707	1	3	257	266	1175	1094	258	267	1176	1095
708	1	3	258	267	1176	1095	259	268	1177	1096
709	1	3	259	268	1177	1096	260	269	1178	1097
710	1	3	260	269	1178	1097	87	88	585	576
711	1	3	171	180	181	172	1089	1170	1179	1098
712	1	3	1089	1170	1179	1098	1090	1171	1180	1099
713	1	3	1090	1171	1180	1099	1091	1172	1181	1100
714	1	3	1091	1172	1181	1100	1092	1173	1182	1101
715	1	3	1092	1173	1182	1101	1093	1174	1183	1102
716	1	3	1093	1174	1183	1102	1094	1175	1184	1103
717	1	3	1094	1175	1184	1103	1095	1176	1185	1104
718	1	3	1095	1176	1185	1104	1096	1177	1186	1105
719	1	3	1096	1177	1186	1105	1097	1178	1187	1106
720	1	3	1097	1178	1187	1106	576	585	586	577
721	1	3	172	181	182	173	1098	1179	1188	1107
722	1	3	1098	1179	1188	1107	1099	1180	1189	1108
723	1	3	1099	1180	1189	1108	1100	1181	1190	1109
724	1	3	1100	1181	1190	1109	1101	1182	1191	1110
725	1	3	1101	1182	1191	1110	1102	1183	1192	1111
726	1	3	1102	1183	1192	1111	1103	1184	1193	1112
727	1	3	1103	1184	1193	1112	1104	1185	1194	1113
728	1	3	1104	1185	1194	1113	1105	1186	1195	1114
729	1	3	1105	1186	1195	1114	1106	1187	1196	1115
730	1	3	1106	1187	1196	1115	577	586	587	578
731	1	3	173	182	183	174	1107	1188	1197	1116
732	1	3	1107	1188	1197	1116	1108	1189	1198	1117
733	1	3	1108	1189	1198	1117	1109	1190	1199	1118
734	1	3	1109	1190	1199	1118	1110	1191	1200	1119
735	1	3	1110	1191	1200	1119	1111	1192	1201	1120
736	1	3	1111	1192	1201	1120	1112	1193	1202	1121
737	1	3	1112	1193	1202	1121	1113	1194	1203	1122
738	1	3	1113	1194	1203	1122	1114	1195	1204	1123
739	1	3	1114	1195	1204	1123	1115	1196	1205	1124
740	1	3	1115	1196	1205	1124	578	587	588	579
741	1	3	174	183	184	175	1116	1197	1206	1125
742	1	3	1116	1197	1206	1125	1117	1198	1207	1126
743	1	3	1117	1198	1207	1126	1118	1199	1208	1127
744	1	3	1118	1199	1208	1127	1119	1200	1209	1128
745	1	3	1119	1200	1209	1128	1120	1201	1210	1129
746	1	3	1120	1201	1210	1129	1121	1202	1211	1130
747	1	3	1121	1202	1211	1130	1122	1203	1212	1131
748	1	3	1122	1203	1212	1131	1123	1204	1213	1132
749	1	3	1123	1204	1213	1132	1124	1205	1214	1133
750	1	3	1124	1205	1214	1133	579	588	589	580
751	1	3	175	184	185	176	1125	1206	1215	1134
752	1	3	1125	1206	1215	1134	1126	1207	1216	1135
753	1	3	1126	1207	1216	1135	1127	1208	1217	1136
754	1	3	1127	1208	1217	1136	1128	1209	1218	1137
755	1	3	1128	1209	1218	1137	1129	1210	1219	1138
756	1	3	1129	1210	1219	1138	1130	1211	1220	1139
757	1	3	1130	1211	1220	1139	1131	1212	1221	1140
758	1	3	1131	1212	1221	1140	1132	1213	1222	1141
759	1	3	1132	1213	1222	1141	1133	1214	1223	1142
760	1	3	1133	1214	1223	1142	580	589	590	581
761	1	3	176	185	186	177	1134	1215	1224	1143
762	1	3	1134	1215	1224	1143	1135	1216	1225	1144
763	1	3	1135	1216	1225	1144	1136	1217	1226	1145
764	1	3	1136	1217	1226	1145	1137	1218	1227	1146
765	1	3	1137	1218	1227	1146	1138	1219	1228	1147
766	1	3	1138	1219	1228	1147	1139	1220	1229	1148
767	1	3	1139	1220	1229	1148	1140	1221	1230	1149
768	1	3	1140	1221	1230	1149	1141	1222	1231	1150
769	1	3	1141	1222	1231	1150	1142	1223	1232	1151
770	1	3	1142	1223	1232	1151	581	590	591	582
771	1	3	177	186	187	178	1143	1224	1233	1152
772	1	3	1143	1224	1233	1152	1144	1225	1234	1153
773	1	3	1144	1225	1234	1153	1145	1226	1235	1154
774	1	3	1145	1226	1235	1154	1146	1227	1236	1155
775	1	3	1146	1227	1236	1155	1147	1228	1237	1156
776	1	3	1147	1228	1237	1156	1148	1229	1238	1157
777	1	3	1148	1229	1238	1157	1149	1230	1239	1158
778	1	3	1149	1230	1239	1158	1150	1231	1240	1159
779	1	3	1150	1231	1240	1159	1151	1232	1241	1160
780	1	3	1151	1232	1241	1160	582	591	592	583
781	1	3	178	187	188	179	1152	1233	1242	1161
782	1	3	1152	1233	1242	1161	1153	1234	1243	1162
783	1	3	1153	1234	1243	1162	1154	1235	1244	1163
784	1	3	1154	1235	1244	1163	1155	1236	1245	1164
785	1	3	1155	1236	1245	1164	1156	1237	1246	1165
786	1	3	1156	1237	1246	1165	1157	1238	1247	1166
787	1	3	1157	1238	1247	1166	1158	1239	1248	1167
788	1	3	1158	1239	1248	1167	1159	1240	1249	1168
789	1	3	1159	1240	1249	1168	1160	1241	1250	1169
790	1	3	1160	1241	1250	1169	583	592	593	584
791	1	3	179	188	28	29	1161	1242	369	378
792	1	3	1161	1242	369	378	1162	1243	370	379
793	1	3	1162	1243	370	379	1163	1244	371	380
794	1	3	1163	1244	371	380	1164	1245	372	381
795	1	3	1164	1245	372	381	1165	1246	373	382
796	1	3	1165	1246	373	382	1166	1247	374	383
797	1	3	1166	1247	374	383	1167	1248	375	384
798	1	3	1167	1248	375	384	1168	1249	376	385
799	1	3	1168	1249	376	385	1169	1250	377	386
800	1	3	1169	1250	377	386	584	593	100	101
801	1	3	16	17	189	180	261	270	1251	1170
802	1	3	261	270	1251	1170	262	271	1252	1171
803	1	3	262	271	1252	1171	263	272	1253	1172
804	1	3	263	272	1253	1172	264	273	1254	1173
805	1	3	264	273	1254	1173	265	274	1255	1174
806	1	3	265	274	1255	1174	266	275	1256	1175
807	1	3	266	275	1256	1175	267	276	1257	1176
808	1	3	267	276	1257	1176	268	277	1258	1177
809	1	3	268	277	1258	1177	269	278	1259	1178
810	1	3	269	278	1259	1178	88	89	594	585
811	1	3	180	189	190	181	1170	1251	1260	1179
812	1	3	1170	1251	1260	1179	1171	1252	1261	1180
813	1	3	1171	1252	1261	1180	1172	1253	1262	1181
814	1	3	1172	1253	1262	1181	1173	1254	1263	1182
815	1	3	1173	1254	1263	1182	1174	1255	1264	1183
816	1	3	1174	1255	1264	1183	1175	1256	1265	1184
817	1	3	1175	1256	1265	1184	1176	1257	1266	1185
818	1	3	1176	1257	1266	1185	1177	1258	1267	1186
819	1	3	1177	1258	1267	1186	1178	1259	1268	1187
820	1	3	1178	1259	1268	1187	585	594	595	586
821	1	3	181	190	191	182	1179	1260	1269	1188
822	1	3	1179	1260	1269	1188	1180	1261	1270	1189
823	1	3	1180	1261	1270	1189	1181	1262	1271	1190
824	1	3	1181	1262	1271	1190	1182	1263	1272	1191
825	1	3	1182	1263	1272	1191	1183	1264	1273	1192
826	1	3	1183	1264	1273	1192	1184	1265	1274	1193
827	1	3	1184	1265	1274	1193	1185	1266	1275	1194
828	1	3	1185	1266	1275	1194	1186	1267	1276	1195
829	1	3	1186	1267	1276	1195	1187	1268	1277	1196
830	1	3	1187	1268	1277	1196	586	595	596	587
831	1	3	182	191	192	183	1188	1269	1278	1197
832	1	3	1188	1269	1278	1197	1189	1270	1279	1198
833	1	3	1189	1270	1279	1198	1190	1271	1280	1199
834	1	3	1190	1271	1280	1199	1191	1272	1281	1200
835	1	3	1191	1272	1281	1200	1192	1273	1282	1201
836	1	3	1192	1273	1282	1201	1193	1274	1283	1202
837	1	3	1193	1274	1283	1202	1194	1275	1284	1203
838	1	3	1194	1275	1284	1203	1195	1276	1285	1204
839	1	3	1195	1276	1285	1204	1196	1277	1286	1205
840	1	3	1196	1277	1286	1205	587	596	597	588
841	1	3	183	192	193	184	1197	1278	1287	1206
842	1	3	1197	1278	1287	1206	1198	1279	1288	1207
843	1	3	1198	1279	1288	1207	1199	1280	1289	1208
844	1	3	1199	1280	1289	1208	1200	1281	1290	1209
845	1	3	1200	1281	1290	1209	1201	1282	1291	1210
846	1	3	1201	1282	1291	1210	1202	1283	1292	1211
847	1	3	1202	1283	1292	1211	1203	1284	1293	1212
848	1	3	1203	1284	1293	1212	1204	1285	1294	1213
849	1	3	1204	1285	1294	1213	1205	1286	1295	1214
850	1	3	1205	1286	1295	1214	588	597	598	589
851	1	3	184	193	194	185	1206	1287	1296	1215
852	1	3	1206	1287	1296	1215	1207	1288	1297	1216
853	1	3	1207	1288	1297	1216	1208	1289	1298	1217
854	1	3	1208	1289	1298	1217	1209	1290	1299	1218
855	1	3	1209	1290	1299	1218	1210	1291	1300	1219
856	1	3	1210	1291	1300	1219	1211	1292	1301	1220
857	1	3	1211	1292	1301	1220	1212	1293	1302	1221
858	1	3	1212	1293	1302	1221	1213	1294	1303	1222
859	1	3	1213	1294	1303	1222	1214	1295	1304	1223
860	1	3	1214	1295	1304	1223	589	598	599	590
861	1	3	185	194	195	186	1215	1296	1305	1224
862	1	3	1215	1296	1305	1224	1216	1297	1306	1225
863	1	3	1216	1297	1306	1225	1217	1298	1307	1226
864	1	3	1217	1298	1307	1226	1218	1299	1308	1227
865	1	3	1218	1299	1308	1227	1219	1300	1309	1228
866	1	3	1219	1300	1309	1228	1220	1301	1310	1229
867	1	3	1220	1301	1310	1229	1221	1302	1311	1230
868	1	3	1221	1302	1311	1230	1222	1303	1312	1231
869	1	3	1222	1303	1312	1231	1223	1304	1313	1232
870	1	3	1223	1304	1313	1232	590	599	600	591
871	1	3	186	195	196	187	1224	1305	1314	1233
872	1	3	1224	1305	1314	1233	1225	1306	1315	1234
873	1	3	1225	1306	1315	1234	1226	1307	1316	1235
874	1	3	1226	1307	1316	1235	1227	1308	1317	1236
875	1	3	1227	1308	1317	1236	1228	1309	1318	1237
876	1	3	1228	1309	1318	1237	1229	1310	1319	1238
877	1	3	1229	1310	1319	1238	1230	1311	1320	1239
878	1	3	1230	1311	1320	1239	1231	1312	1321	1240
879	1	3	1231	1312	1321	1240	1232	1313	1322	1241
880	1	3	1232	1313	1322	1241	591	600	601	592
881	1	3	187	196	197	188	1233	1314	1323	1242
882	1	3	1233	1314	1323	1242	1234	1315	1324	1243
883	1	3	1234	1315	1324	1243	1235	1316	1325	1244
884	1	3	1235	1316	1325	1244	1236	1317	1326	1245
885	1	3	1236	1317	1326	1245	1237	1318	1327	1246
886	1	3	1237	1318	1327	1246	1238	1319	1328	1247
887	1	3	1238	1319	1328	1247	1239	1320	1329	1248
888	1	3	1239	1320	1329	1248	1240	1321	1330	1249
889	1	3	1240	1321	1330	1249	1241	1322	1331	1250
890	1	3	1241	1322	1331	1250	592	601	602	593
891	1	3	188	197	27	28	1242	1323	360	369
892	1	3	1242	1323	360	369	1243	1324	361	370
893	1	3	1243	1324	361	370	1244	1325	362	371
894	1	3	1244	1325	362	371	1245	1326	363	372
895	1	3	1245	1326	363	372	1246	1327	364	373
896	1	3	1246	1327	364	373	1247	1328	365	374
897	1	3	1247	1328	365	374	1248	1329	366	375
898	1	3	1248	1329	366	375	1249	1330	367	376
899	1	3	1249	1330	367	376	1250	1331	368	377
900	1	3	1250	1331	368	377	593	602	99	100
901	1	3	17	2	18	189	270	54	279	1251
902	1	3	270	54	279	1251	271	55	280	1252
903	1	3	271	55	280	1252	272	56	281	1253
904	1	3	272	56	281	1253	273	57	282	1254
905	1	3	273	57	282	1254	274	58	283	1255
906	1	3	274	58	283	1255	275	59	284	1256
907	1	3	275	59	284	1256	276	60	285	1257
908	1	3	276	60	285	1257	277	61	286	1258
909	1	3	277	61	286	1258	278	62	287	1259
910	1	3	278	62	287	1259	89	6	90	594
911	1	3	189	18	19	190	1251	279	288	1260
912	1	3	1251	279	288	1260	1252	280	289	1261
913	1	3	1252	280	289	1261	1253	281	290	1262
914	1	3	1253	281	290	1262	1254	282	291	1263
915	1	3	1254	282	291	1263	1255	283	292	1264
916	1	3	1255	283	292	1264	1256	284	293	1265
917	1	3	1256	284	293	1265	1257	285	294	1266
918	1	3	1257	285	294	1266	1258	286	295	1267
919	1	3	1258	286	295	1267	1259	287	296	1268
920	1	3	1259	287	296	1268	594	90	91	595
921	1	3	190	19	20	191	1260	288	297	1269
922	1	3	1260	288	297	1269	1261	289	298	1270
923	1	3	1261	289	298	1270	1262	290	299	1271
924	1	3	1262	290	299	1271	1263	291	300	1272
925	1	3	1263	291	300	1272	1264	292	301	1273
926	1	3	1264	292	301	1273	1265	293	302	1274
927	1	3	1265	293	302	1274	1266	294	303	1275
928	1	3	1266	294	303	1275	1267	295	304	1276
929	1	3	1267	295	304	1276	1268	296	305	1277
930	1	3	1268	296	305	1277	595	91	92	596
931	1	3	191	20	21	192	1269	297	306	1278
932	1	3	1269	297	306	1278	1270	298	307	1279
933	1	3	1270	298	307	1279	1271	299	308	1280
934	1	3	1271	299	308	1280	1272	300	309	1281
935	1	3	1272	300	309	1281	1273	301	310	1282
936	1	3	1273	301	310	1282	1274	302	311	1283
937	1	3	1274	302	311	1283	1275	303	312	1284
938	1	3	1275	303	312	1284	1276	304	313	1285
939	1	3	1276	304	313	1285	1277	305	314	1286
940	1	3	1277	305	314	1286	596	92	93	597
941	1	3	192	21	22	193	1278	306	315	1287
942	1	3	1278	306	315	1287	1279	307	316	1288
943	1	3	1279	307	316	1288	1280	308	317	1289
944	1	3	1280	308	317	1289	1281	309	318	1290
945	1	3	1281	309	318	1290	1282	310	319	1291
946	1	3	1282	310	319	1291	1283	311	320	1292
947	1	3	1283	311	320	1292	1284	312	321	1293
948	1	3	1284	312	321	1293	1285	313	322	1294
949	1	3	1285	313	322	1294	1286	314	323	1295
950	1	3	1286	314	323	1295	597	93	94	598
951	1	3	193	22	23	194	1287	315	324	1296
952	1	3	1287	315	324	1296	1288	316	325	1297
953	1	3	1288	316	325	1297	1289	317	326	1298
954	1	3	1289	317	326	1298	1290	318	327	1299
955	1	3	1290	318	327	1299	1291	319	328	1300
956	1	3	1291	319	328	1300	1292	320	329	1301
957	1	3	1292	320	329	1301	1293	321	330	1302
958	1	3	1293	321	330	1302	1294	322	331	1303
959	1	3	1294	322	331	1303	1295	323	332	1304
960	1	3	1295	323	332	1304	598	94	95	599
961	1	3	194	23	24	195	1296	324	333	1305
962	1	3	1296	324	333	1305	1297	325	334	1306
963	1	3	1297	325	334	1306	1298	326	335	1307
964	1	3	1298	326	335	1307	1299	327	336	1308
965	1	3	1299	327	336	1308	1300	328	337	1309
966	1	3	1300	328	337	1309	1301	329	338	1310
967	1	3	1301	329	338	1310	1302	330	339	1311
968	1	3	1302	330	339	1311	1303	331	340	1312
969	1	3	1303	331	340	1312	1304	332	341	1313
970	1	3	1304	332	341	1313	599	95	96	600
971	1	3	195	24	25	196	1305	333	342	1314
972	1	3	1305	333	342	1314	1306	334	343	1315
973	1	3	1306	334	343	1315	1307	335	344	1316
974	1	3	1307	335	344	1316	1308	336	345	1317
975	1	3	1308	336	345	1317	1309	337	346	1318
976	1	3	1309	337	346	1318	1310	338	347	1319
977	1	3	1310	338	347	1319	1311	339	348	1320
978	1	3	1311	339	348	1320	1312	340	349	1321
979	1	3	1312	340	349	1321	1313	341	350	1322
980	1	3	1313	341	350	1322	600	96	97	601
981	1	3	196	25	26	197	1314	342	351	1323
982	1	3	1314	342	351	1323	1315	343	352	1324
983	1	3	1315	343	352	1324	1316	344	353	1325
984	1	3	1316	344	353	1325	1317	345	354	1326
985	1	3	1317	345	354	1326	1318	346	355	1327
986	1	3	1318	346	355	1327	1319	347	356	1328
987	1	3	1319	347	356	1328	1320	348	357	1329
988	1	3	1320	348	357	1329	1321	349	358	1330
989	1	3	1321	349	358	1330	1322	350	359	1331
990	1	3	1322	350	359	1331	601	97	98	602
991	1	3	197	26	3	27	1323	351	63	360
992	1	3	1323	351	63	360	1324	352	64	361
993	1	3	1324	352	64	361	1325	353	65	362
994	1	3	1325	353	65	362	1326	354	66	363
995	1	3	1326	354	66	363	1327	355	67	364
996	1	3	1327	355	67	364	1328	356	68	365
997	1	3	1328	356	68	365	1329	357	69	366
998	1	3	1329	357	69	366	1330	358	70	367
999	1	3	1330	358	70	367	1331	359	71	368
1000	1	3	1331	359	71	368	602	98	7	99

     
VELO
node	1	0	-0.1d2	0	0
node	4	0	-0.1d2	0	0
node	5	0	-0.1d2	0	0
node	8	0	-0.1d2	0	0
node	36	0	-0.1d2	0	0
node	37	0	-0.1d2	0	0
node	38	0	-0.1d2	0	0
node	39	0	-0.1d2	0	0
node	40	0	-0.1d2	0	0
node	41	0	-0.1d2	0	0
node	42	0	-0.1d2	0	0
node	43	0	-0.1d2	0	0
node	44	0	-0.1d2	0	0
node	45	0	-0.1d2	0	0
node	46	0	-0.1d2	0	0
node	47	0	-0.1d2	0	0
node	48	0	-0.1d2	0	0
node	49	0	-0.1d2	0	0
node	50	0	-0.1d2	0	0
node	51	0	-0.1d2	0	0
node	52	0	-0.1d2	0	0
node	53	0	-0.1d2	0	0
node	72	0	-0.1d2	0	0
node	73	0	-0.1d2	0	0
node	74	0	-0.1d2	0	0
node	75	0	-0.1d2	0	0
node	76	0	-0.1d2	0	0
node	77	0	-0.1d2	0	0
node	78	0	-0.1d2	0	0
node	79	0	-0.1d2	0	0
node	80	0	-0.1d2	0	0
node	108	0	-0.1d2	0	0
node	109	0	-0.1d2	0	0
node	110	0	-0.1d2	0	0
node	111	0	-0.1d2	0	0
node	112	0	-0.1d2	0	0
node	113	0	-0.1d2	0	0
node	114	0	-0.1d2	0	0
node	115	0	-0.1d2	0	0
node	116	0	-0.1d2	0	0
node	441	0	-0.1d2	0	0
node	442	0	-0.1d2	0	0
node	443	0	-0.1d2	0	0
node	444	0	-0.1d2	0	0
node	445	0	-0.1d2	0	0
node	446	0	-0.1d2	0	0
node	447	0	-0.1d2	0	0
node	448	0	-0.1d2	0	0
node	449	0	-0.1d2	0	0
node	450	0	-0.1d2	0	0
node	451	0	-0.1d2	0	0
node	452	0	-0.1d2	0	0
node	453	0	-0.1d2	0	0
node	454	0	-0.1d2	0	0
node	455	0	-0.1d2	0	0
node	456	0	-0.1d2	0	0
node	457	0	-0.1d2	0	0
node	458	0	-0.1d2	0	0
node	459	0	-0.1d2	0	0
node	460	0	-0.1d2	0	0
node	461	0	-0.1d2	0	0
node	462	0	-0.1d2	0	0
node	463	0	-0.1d2	0	0
node	464	0	-0.1d2	0	0
node	465	0	-0.1d2	0	0
node	466	0	-0.1d2	0	0
node	467	0	-0.1d2	0	0
node	468	0	-0.1d2	0	0
node	469	0	-0.1d2	0	0
node	470	0	-0.1d2	0	0
node	471	0	-0.1d2	0	0
node	472	0	-0.1d2	0	0
node	473	0	-0.1d2	0	0
node	474	0	-0.1d2	0	0
node	475	0	-0.1d2	0	0
node	476	0	-0.1d2	0	0
node	477	0	-0.1d2	0	0
node	478	0	-0.1d2	0	0
node	479	0	-0.1d2	0	0
node	480	0	-0.1d2	0	0
node	481	0	-0.1d2	0	0
node	482	0	-0.1d2	0	0
node	483	0	-0.1d2	0	0
node	484	0	-0.1d2	0	0
node	485	0	-0.1d2	0	0
node	486	0	-0.1d2	0	0
node	487	0	-0.1d2	0	0
node	488	0	-0.1d2	0	0
node	489	0	-0.1d2	0	0
node	490	0	-0.1d2	0	0
node	491	0	-0.1d2	0	0
node	492	0	-0.1d2	0	0
node	493	0	-0.1d2	0	0
node	494	0	-0.1d2	0	0
node	495	0	-0.1d2	0	0
node	496	0	-0.1d2	0	0
node	497	0	-0.1d2	0	0
node	498	0	-0.1d2	0	0
node	499	0	-0.1d2	0	0
node	500	0	-0.1d2	0	0
node	501	0	-0.1d2	0	0
node	502	0	-0.1d2	0	0
node	503	0	-0.1d2	0	0
node	504	0	-0.1d2	0	0
node	505	0	-0.1d2	0	0
node	506	0	-0.1d2	0	0
node	507	0	-0.1d2	0	0
node	508	0	-0.1d2	0	0
node	509	0	-0.1d2	0	0
node	510	0	-0.1d2	0	0
node	511	0	-0.1d2	0	0
node	512	0	-0.1d2	0	0
node	513	0	-0.1d2	0	0
node	514	0	-0.1d2	0	0
node	515	0	-0.1d2	0	0
node	516	0	-0.1d2	0	0
node	517	0	-0.1d2	0	0
node	518	0	-0.1d2	0	0
node	519	0	-0.1d2	0	0
node	520	0	-0.1d2	0	0
node	521	0	-0.1d2	0	0
node	2	0	0.1d2	0	0
node	3	0	0.1d2	0	0
node	6	0	0.1d2	0	0
node	7	0	0.1d2	0	0
node	18	0	0.1d2	0	0
node	19	0	0.1d2	0	0
node	20	0	0.1d2	0	0
node	21	0	0.1d2	0	0
node	22	0	0.1d2	0	0
node	23	0	0.1d2	0	0
node	24	0	0.1d2	0	0
node	25	0	0.1d2	0	0
node	26	0	0.1d2	0	0
node	54	0	0.1d2	0	0
node	55	0	0.1d2	0	0
node	56	0	0.1d2	0	0
node	57	0	0.1d2	0	0
node	58	0	0.1d2	0	0
node	59	0	0.1d2	0	0
node	60	0	0.1d2	0	0
node	61	0	0.1d2	0	0
node	62	0	0.1d2	0	0
node	63	0	0.1d2	0	0
node	64	0	0.1d2	0	0
node	65	0	0.1d2	0	0
node	66	0	0.1d2	0	0
node	67	0	0.1d2	0	0
node	68	0	0.1d2	0	0
node	69	0	0.1d2	0	0
node	70	0	0.1d2	0	0
node	71	0	0.1d2	0	0
node	90	0	0.1d2	0	0
node	91	0	0.1d2	0	0
node	92	0	0.1d2	0	0
node	93	0	0.1d2	0	0
node	94	0	0.1d2	0	0
node	95	0	0.1d2	0	0
node	96	0	0.1d2	0	0
node	97	0	0.1d2	0	0
node	98	0	0.1d2	0	0
node	279	0	0.1d2	0	0
node	280	0	0.1d2	0	0
node	281	0	0.1d2	0	0
node	282	0	0.1d2	0	0
node	283	0	0.1d2	0	0
node	284	0	0.1d2	0	0
node	285	0	0.1d2	0	0
node	286	0	0.1d2	0	0
node	287	0	0.1d2	0	0
node	288	0	0.1d2	0	0
node	289	0	0.1d2	0	0
node	290	0	0.1d2	0	0
node	291	0	0.1d2	0	0
node	292	0	0.1d2	0	0
node	293	0	0.1d2	0	0
node	294	0	0.1d2	0	0
node	295	0	0.1d2	0	0
node	296	0	0.1d2	0	0
node	297	0	0.1d2	0	0
node	298	0	0.1d2	0	0
node	299	0	0.1d2	0	0
node	300	0	0.1d2	0	0
node	301	0	0.1d2	0	0
node	302	0	0.1d2	0	0
node	303	0	0.1d2	0	0
node	304	0	0.1d2	0	0
node	305	0	0.1d2	0	0
node	306	0	0.1d2	0	0
node	307	0	0.1d2	0	0
node	308	0	0.1d2	0	0
node	309	0	0.1d2	0	0
node	310	0	0.1d2	0	0
node	311	0	0.1d2	0	0
node	312	0	0.1d2	0	0
node	313	0	0.1d2	0	0
node	314	0	0.1d2	0	0
node	315	0	0.1d2	0	0
node	316	0	0.1d2	0	0
node	317	0	0.1d2	0	0
node	318	0	0.1d2	0	0
node	319	0	0.1d2	0	0
node	320	0	0.1d2	0	0
node	321	0	0.1d2	0	0
node	322	0	0.1d2	0	0
node	323	0	0.1d2	0	0
node	324	0	0.1d2	0	0
node	325	0	0.1d2	0	0
node	326	0	0.1d2	0	0
node	327	0	0.1d2	0	0
node	328	0	0.1d2	0	0
node	329	0	0.1d2	0	0
node	330	0	0.1d2	0	0
node	331	0	0.1d2	0	0
node	332	0	0.1d2	0	0
node	333	0	0.1d2	0	0
node	334	0	0.1d2	0	0
node	335	0	0.1d2	0	0
node	336	0	0.1d2	0	0
node	337	0	0.1d2	0	0
node	338	0	0.1d2	0	0
node	339	0	0.1d2	0	0
node	340	0	0.1d2	0	0
node	341	0	0.1d2	0	0
node	342	0	0.1d2	0	0
node	343	0	0.1d2	0	0
node	344	0	0.1d2	0	0
node	345	0	0.1d2	0	0
node	346	0	0.1d2	0	0
node	347	0	0.1d2	0	0
node	348	0	0.1d2	0	0
node	349	0	0.1d2	0	0
node	350	0	0.1d2	0	0
node	351	0	0.1d2	0	0
node	352	0	0.1d2	0	0
node	353	0	0.1d2	0	0
node	354	0	0.1d2	0	0
node	355	0	0.1d2	0	0
node	356	0	0.1d2	0	0
node	357	0	0.1d2	0	0
node	358	0	0.1d2	0	0
node	359	0	0.1d2	0	0


endv

!IVEL
!  comp   1    1.0d1  0.0 0.0    ! set initial velocity for all nodes in the first body    
!endv

!TIME 2
!0.0  1.0
!0.03 1.0

!LOAD
!   comp  1    0.0 0.0 -5.0
!endl
   
ENDI

